NAME: ..//instances//e_vigo//TSP_PD_vrp200_100_5_0.00.tspBeta0.000000 
COMMENT: TSPSimoultaneousPickUpandDelivery_2008 
TYPE: TSPDC 
DIMENSION: 102 
CAPACITY: 586 
EDGE_WEIGHT_TYPE: EXPLICIT 
EDGE_WEIGHT_FORMAT: FULL_MATRIX 
EDGE_WEIGHT_SECTION: 
10000000        71        22        41        39        53        75        27        47        74        16        31        72        26        37        63        59        71        48        51        34        17        30        15        8        52        28        50        38        47        86        28        85        16        29        66        62        60        73        39        77        30        6        32        24        59        67        35        34        65        50        80        42        39        37        26        49        81        62        38        46        3        86        39        22        35        38        61        87        29        23        24        49        56        59        9        41        85        63        28        83        50        77        64        36        66        75        46        29        39        76        9        61        68        19        10        62        29        27        48        42         
 71        10000000        93        32        69        18        8        60        54        48        87        44        28        57        66        38        14        40        71        62        49        76        53        69        64        42        66        35        34        37        37        46        49        84        85        16        44        11        18        48        27        44        76        93        75        18        41        59        40        19        55        41        85        84        91        48        60        38        30        38        25        70        47        88        66        97        97        55        44        55        56        93        26        22        21        80        77        41        11        69        37        73        16        43        57        11        50        84        90        98        6        67        41        49        89        63        44        64        57        79        84         
 22        93        10000000        63        52        75        97        42        65        93        6        52        93        42        51        83        81        91        61        67        54        27        47        29        29        72        40        71        60        66        106        49        103        17        32        88        81        82        95        58        99        51        17        30        31        81        87        49        56        86        68        98        48        45        34        48        62        102        82        59        68        23        107        39        35        26        35        78        107        48        43        13        70        78        80        13        48        106        85        38        104        59        99        83        51        88        94        53        24        35        98        28        81        87        10        30        81        42        46        58        45         
 41        32        63        10000000        40        16        34        40        29        42        58        13        32        36        37        28        23        36        44        38        18        44        34        43        34        22        46        15        16        30        59        23        64        52        54        33        31        22        32        20        37        21        47        61        52        17        33        43        9        34        32        57        55        53        69        16        51        43        38        22        11        40        50        67        43        72        65        37        50        24        25        62        21        15        28        50        60        48        22        48        44        61        42        31        42        31        43        55        65        66        37        36        28        38        58        35        31        45        26        51        66         
 39        69        52        40        10000000        55        68        59        18        46        50        30        54        56        3        40        63        47        9        15        21        25        57        52        33        30        63        35        50        65        98        48        103        35        24        73        36        62        61        21        60        49        45        32        62        51        42        66        32        74        19        96        17        16        76        30        79        59        76        55        51        36        60        78        58        74        33        29        62        17        21        43        59        47        68        42        78        62        58        64        61        84        81        38        66        70        46        16        68        34        75        30        37        39        43        43        36        63        17        12        80         
 53        18        75        16        55        10000000        23        43        43        48        69        28        32        40        52        34        8        40        59        52        34        59        36        51        47        33        50        25        17        24        44        28        51        66        69        18        39        7        26        35        34        26        58        76        58        13        39        44        24        19        45        43        71        69        74        30        47        43        25        21        7        52        52        72        49        79        81        48        50        40        40        76        12        15        14        62        61        48        13        52        44        59        27        39        42        15        49        71        73        81        23        49        36        46        71        45        39        48        41        66        69         
 75        8        97        34        68        23        10000000        66        52        43        91        47        22        63        66        34        21        35        69        60        50        78        59        74        68        40        72        34        40        44        44        51        57        86        87        24        40        17        11        48        20        49        80        94        81        18        37        66        42        27        53        49        85        84        97        50        67        31        38        44        30        74        40        94        72        102        98        51        37        57        58        96        33        22        28        84        84        34        12        75        30        80        22        39        64        19        45        84        96        99        10        70        37        44        92        68        40        71        58        78        91         
 27        60        42        40        59        43        66        10000000        60        80        36        36        72        4        56        67        46        75        67        67        44        43        7        14        28        59        6        54        27        26        65        17        61        43        56        50        69        49        69        49        76        18        27        59        15        54        72        8        37        48        63        56        67        64        31        33        22        83        41        22        37        29        90        28        7        37        65        72        89        44        38        49        34        53        42        33        21        87        56        9        84        25        61        70        9        52        82        70        31        66        64        32        67        76        44        18        69        5        42        70        26         
 47        54        65        29        18        43        52        60        10000000        28        61        24        36        57        17        22        51        29        17        9        16        39        56        57        40        13        66        19        43        58        86        46        93        49        41        61        18        48        44        11        42        45        54        49        67        36        24        66        25        62        3        86        35        34        83        27        76        41        67        49        40        45        43        84        61        83        51        13        44        18        24        58        50        32        57        53        80        44        42        67        43        84        68        20        65        57        29        32        77        52        59        38        19        22        56        47        18        65        21        26        85         
 74        48        93        42        46        48        43        80        28        10000000        89        45        21        77        45        14        53        8        41        31        40        67        75        81        66        22        87        27        57        70        86        64        96        77        70        61        12        49        31        35        24        63        80        77        91        35        9        84        43        64        27        88        61        61        107        49        92        17        72        63        49        71        15        107        83        109        79        17        17        45        50        87        58        32        61        81        101        18        39        88        19        102        64        11        83        56        2        57        102        80        52        65        14        6        85        71        12        85        48        49        106         
 16        87        6        58        50        69        91        36        61        89        10000000        47        88        36        48        78        74        87        59        64        49        24        41        22        24        68        35        66        53        60        100        43        97        16        32        81        77        76        90        54        94        45        11        31        26        75        82        43        50        80        64        92        47        45        31        42        57        97        76        52        62        18        102        36        29        25        37        75        102        44        38        16        64        72        74        8        43        101        79        33        99        54        92        79        45        82        90        53        21        37        92        24        76        83        11        24        77        36        41        57        41         
 31        44        52        13        30        28        47        36        24        45        47        10000000        41        33        26        33        35        41        35        32        9        32        32        36        23        23        42        20        21        36        69        21        74        40        41        45        33        35        43        13        47        21        37        48        45        29        38        41        4        45        27        66        44        42        62        4        52        51        47        26        22        29        57        62        38        64        53        36        57        13        12        50        30        26        39        39        57        55        35        44        52        60        54        35        41        43        47        44        57        54        50        24        32        41        46        26        33        41        13        41        62         
 72        28        93        32        54        32        22        72        36        21        88        41        10000000        68        53        14        35        13        53        43        40        70        65        76        64        24        78        22        45        56        65        55        77        80        76        42        20        31        11        37        6        53        78        84        84        19        16        74        38        45        36        69        71        71        101        46        79        12        55        51        36        70        20        100        76        104        87        31        18        47        51        90        43        18        44        80        91        16        21        80        12        91        44        19        72        37        22        69        98        88        32        65        18        23        86        67        20        76        49        61        98         
 26        57        42        36        56        40        63        4        57        77        36        33        68        10000000        53        63        43        72        64        63        41        41        5        14        26        56        10        50        24        24        64        13        61        42        54        48        65        46        66        46        72        15        26        58        17        50        69        10        34        46        60        56        64        61        34        29        24        79        40        20        34        27        86        32        9        40        64        69        86        40        35        49        32        50        40        33        24        83        53        12        80        28        59        66        11        49        78        67        33        64        61        30        63        73        43        16        65        9        39        67        30         
 37        66        51        37        3        52        66        56        17        45        48        26        53        53        10000000        39        60        46        11        16        18        24        54        50        30        28        60        33        47        62        95        45        100        34        25        70        35        59        59        18        59        46        43        32        59        49        41        63        29        71        18        93        19        18        74        27        76        58        73        52        48        34        60        76        55        72        34        29        61        14        18        43        56        45        65        41        75        61        55        61        60        81        79        37        63        67        46        18        66        35        72        27        36        39        41        40        35        60        14        15        78         
 63        38        83        28        40        34        34        67        22        14        78        33        14        63        39        10000000        40        9        39        29        29        58        61        69        55        11        73        13        43        56        74        50        84        68        63        49        6        36        23        25        20        49        69        71        78        22        5        70        30        51        22        76        57        57        95        37        78        19        59        49        35        60        24        94        70        97        73        18        24        35        40        78        45        19        48        70        87        23        27        75        21        89        53        5        69        44        16        54        90        74        43        55        4        12        75        59        6        72        38        47        93         
 59        14        81        23        63        8        21        46        51        53        74        35        35        43        60        40        10000000        45        67        60        42        66        39        55        53        40        52        32        21        23        36        32        44        72        76        10        46        4        28        43        37        30        63        83        61        18        45        45        31        12        53        36        79        77        77        38        46        47        19        24        13        58        56        74        52        83        88        55        53        48        47        82        12        21        8        68        62        51        15        55        47        59        19        45        43        8        55        78        76        89        18        56        42        52        77        50        46        50        49        74        70         
 71        40        91        36        47        40        35        75        29        8        87        41        13        72        46        9        45        10000000        44        34        38        66        69        77        63        19        82        22        51        63        77        58        88        77        70        53        11        41        23        33        17        57        78        78        86        27        5        78        39        56        28        80        63        63        103        46        85        12        64        57        42        69        15        103        78        105        80        21        16        44        48        86        51        25        53        79        96        15        31        84        14        96        56        9        77        48        10        60        99        81        44        63        10        11        83        68        11        80        46        52        101         
 48        71        61        44        9        59        69        67        17        41        59        35        53        64        11        39        67        44        10000000        10        27        34        65        61        42        30        72        36        56        71        102        55        108        44        31        77        33        65        61        24        59        56        54        38        71        53        39        74        38        78        17        101        20        21        85        36        86        56        81        61        55        45        56        87        66        82        38        24        58        24        29        51        64        49        72        51        86        58        59        72        58        92        84        35        74        73        41        16        77        39        76        39        35        35        51        51        33        71        25        9        89         
 51        62        67        38        15        52        60        67        9        31        64        32        43        63        16        29        60        34        10        10000000        23        40        64        63        44        21        72        28        52        67        95        53        102        50        40        69        23        57        51        19        49        53        57        47        72        45        29        73        33        71        7        95        30        30        88        34        84        46        76        57        49        48        46        89        67        86        48        14        48        23        29        58        59        40        66        56        87        48        51        73        48        91        76        25        73        66        31        26        80        49        68        42        25        25        57        52        23        71        25        19        90         
 34        49        54        18        21        34        50        44        16        40        49        9        40        41        18        29        42        38        27        23        10000000        30        41        42        26        18        50        18        29        45        77        30        82        40        37        52        28        41        44        5        46        30        40        45        52        32        33        50        11        52        19        74        37        35        68        11        61        48        55        35        29        31        53        69        45        69        48        28        53        7        11        49        38        28        46        41        65        52        38        51        50        69        60        30        50        49        41        37        62        49        55        25        27        35        46        32        28        49        9        33        69         
 17        76        27        44        25        59        78        43        39        67        24        32        70        41        24        58        66        66        34        40        30        10000000        44        32        16        47        45        48        47        59        97        40        98        10        13        75        56        66        74        34        76        41        21        18        41        61        62        51        36        74        41        92        25        22        53        28        65        78        73        49        52        14        81        56        39        49        23        52        82        23        20        20        58        57        68        17        58        81        66        45        80        67        85        58        52        73        68        29        44        24        82        11        56        61        17        25        56        46        21        33        59         
 30        53        47        34        57        36        59        7        56        75        41        32        65        5        54        61        39        69        65        64        41        44        10000000        19        29        54        13        48        20        19        59        11        56        46        57        43        64        42        62        45        69        12        31        61        22        47        67        9        32        41        59        51        67        64        38        29        21        76        35        15        30        31        84        35        14        44        67        68        83        41        36        53        27        47        35        37        26        81        49        16        77        28        54        64        9        45        77        69        38        68        57        33        61        71        48        20        64        12        40        69        33         
 15        69        29        43        52        51        74        14        57        81        22        36        76        14        50        69        55        77        61        63        42        32        19        10000000        19        59        13        55        35        38        77        23        74        30        44        61        69        58        75        47        81        25        14        47        10        60        74        21        38        59        61        70        57        54        26        32        35        86        54        32        44        18        92        26        7        29        53        70        92        39        34        36        44        58        53        20        26        90        63        12        87        34        72        71        23        62        83        61        22        54        73        23        68        76        30        10        69        14        38        63        28         
 8        64        29        34        33        47        68        28        40        66        24        23        64        26        30        55        53        63        42        44        26        16        29        19        10000000        44        31        42        33        43        82        24        83        20        28        61        54        54        66        31        70        26        14        33        29        51        59        36        26        60        43        77        39        36        44        18        49        73        58        34        40        6        78        45        25        43        39        53        79        21        16        29        44        49        54        16        45        77        56        31        75        52        72        55        36        60        67        42        37        40        70        4        53        60        24        10        54        31        19        43        47         
 52        42        72        22        30        33        40        59        13        22        68        23        24        56        28        11        40        19        30        21        18        47        54        59        44        10000000        65        8        38        52        76        43        84        57        52        50        10        38        31        14        30        42        59        60        69        24        15        64        22        52        13        76        47        46        86        28        73        31        58        44        32        50        34        85        61        87        62        15        35        24        29        67        42        20        48        59        80        34        31        67        32        82        56        11        63        46        23        45        80        63        47        44        9        17        64        50        10        64        27        38        85         
 28        66        40        46        63        50        72        6        66        87        35        42        78        10        60        73        52        82        72        72        50        45        13        13        31        65        10000000        60        33        31        68        23        64        44        58        56        75        55        75        55        82        25        27        60        10        60        78        9        43        53        69        60        70        67        25        38        22        89        46        29        44        31        96        22        6        32        67        78        95        49        43        49        40        60        48        33        15        93        62        3        90        21        66        76        11        58        88        73        26        67        70        35        73        82        44        21        75        2        47        74        20         
 50        35        71        15        35        25        34        54        19        27        66        20        22        50        33        13        32        22        36        28        18        48        48        55        42        8        60        10000000        30        44        68        37        76        58        55        42        16        30        27        15        28        36        56        63        64        17        19        57        17        44        21        68        52        51        81        24        65        31        50        37        24        48        37        81        57        83        66        23        37        25        28        67        34        13        39        58        74        35        23        62        33        76        49        17        56        38        29        50        77        66        40        43        13        23        64        46        16        59        27        44        80         
 38        34        60        16        50        17        40        27        43        57        53        21        45        24        47        43        21        51        56        52        29        47        20        35        33        38        33        30        10000000        15        50        11        53        52        58        28        46        23        42        33        49        9        42        65        41        27        48        28        18        28        46        46        64        61        58        21        35        57        27        6        10        38        64        55        32        63        70        52        63        33        31        62        11        27        21        47        46        61        29        36        57        46        39        47        27        28        59        65        56        71        39        36        44        54        57        29        46        32        33        62        53         
 47        37        66        30        65        24        44        26        58        70        60        36        56        24        62        56        23        63        71        67        45        59        19        38        43        52        31        44        15        10000000        40        19        40        62        71        25        60        27        50        48        58        18        49        76        41        37        61        23        34        22        61        33        78        75        56        35        23        67        16        10        21        47        76        52        33        63        82        67        74        48        45        71        12        38        17        55        40        71        36        34        67        36        35        60        21        27        72        79        57        83        40        47        57        67        65        37        60        29        48        77        48         
 86        37        106        59        98        44        44        65        86        86        100        69        65        64        95        74        36        77        102        95        77        97        59        77        82        76        68        68        50        40        10000000        58        15        102        109        26        80        38        55        78        64        57        89        115        79        52        78        59        66        24        89        11        113        111        91        71        51        75        24        49        48        87        84        86        72        100        120        90        81        82        81        111        40        56        30        95        72        78        47        71        74        63        22        79        57        30        87        114        95        121        34        86        77        86        105        76        80        66        83        109        80         
 28        46        49        23        48        28        51        17        46        64        43        21        55        13        45        50        32        58        55        53        30        40        11        23        24        43        23        37        11        19        58        10000000        59        44        52        39        52        34        52        34        59        2        32        57        30        37        55        21        21        37        49        52        59        57        47        19        31        66        34        10        21        29        73        45        21        52        63        57        72        31        27        52        21        36        31        37        37        70        40        26        67        39        50        53        20        39        66        61        45        64        50        28        50        60        47        19        52        22        31        60        43         
 85        49        103        64        103        51        57        61        93        96        97        74        77        61        100        84        44        88        108        102        82        98        56        74        83        84        64        76        53        40        15        59        10000000        102        110        35        89        48        67        84        76        57        87        116        74        62        89        54        71        32        96        8        117        114        84        74        43        87        27        50        53        87        96        78        68        94        122        99        94        86        84        109        44        65        37        93        64        91        57        66        86        54        35        89        52        40        98        118        89        122        47        87        86        96        104        75        89        62        87        115        72         
 16        84        17        52        35        66        86        43        49        77        16        40        80        42        34        68        72        77        44        50        40        10        46        30        20        57        44        58        52        62        102        44        102        10000000        16        81        66        73        83        43        86        45        17        17        37        69        72        51        44        80        51        96        32        29        46        36        65        88        78        53        59        15        91        50        38        41        23        62        92        33        29        10        64        66        73        11        55        91        74        43        89        65        91        68        52        80        78        37        36        23        89        16        66        72        7        26        66        45        31        41        54         
 29        85        32        54        24        69        87        56        41        70        32        41        76        54        25        63        76        70        31        40        37        13        57        44        28        52        58        55        58        71        109        52        110        16        10000000        85        59        76        81        39        82        53        32        8        52        69        65        64        45        85        43        104        16        13        62        39        77        82        85        61        63        27        84        66        51        57        12        53        86        30        29        21        69        65        79        27        70        85        75        57        84        79        95        61        64        84        70        21        53        13        91        24        60        64        22        38        59        58        28        27        70         
 66        16        88        33        73        18        24        50        61        61        81        45        42        48        70        49        10        53        77        69        52        75        43        61        61        50        56        42        28        25        26        39        35        81        85        10000000        55        13        33        53        42        37        70        92        65        27        53        48        41        4        63        27        88        86        81        47        46        53        14        29        23        66        62        77        57        87        97        65        59        57        57        90        17        30        8        75        64        57        22        59        52        59        11        54        46        5        63        88        81        98        16        64        51        61        85        57        55        54        58        84        72         
 62        44        81        31        36        39        40        69        18        12        77        33        20        65        35        6        46        11        33        23        28        56        64        69        54        10        75        16        46        60        80        52        89        66        59        55        10000000        42        30        23        26        51        68        67        79        28        6        73        32        57        17        81        52        52        95        37        81        23        64        52        39        59        25        95        71        97        69        11        26        34        39        76        49        24        53        69        89        26        33        77        25        91        59        2        72        50        13        49        90        70        49        53        3        8        73        59        0        74        36        42        95         
 60        11        82        22        62        7        17        49        48        49        76        35        31        46        59        36        4        41        65        57        41        66        42        58        54        38        55        30        23        27        38        34        48        73        76        13        42        10000000        23        41        32        32        65        83        64        14        41        48        31        15        50        39        78        76        80        38        50        42        24        27        14        60        51        77        55        86        88        52        49        47        47        83        15        18        13        69        66        46        10        58        42        63        20        42        47        9        51        77        79        89        16        57        39        48        78        52        42        53        48        72        73         
 73        18        95        32        61        26        11        69        44        31        90        43        11        66        59        23        28        23        61        51        44        74        62        75        66        31        75        27        42        50        55        52        67        83        81        33        30        23        10000000        42        9        51        79        89        82        15        26        70        39        36        44        59        78        77        99        47        73        20        46        47        32        72        29        97        74        103        92        41        26        51        54        93        38        17        36        82        87        24        13        78        19        86        33        28        68        28        33        76        97        93        21        67        27        33        89        67        30        73        53        69        94         
 39        48        58        20        21        35        48        49        11        35        54        13        37        46        18        25        43        33        24        19        5        34        45        47        31        14        55        15        33        48        78        34        84        43        39        53        23        41        42        10000000        43        34        45        47        57        31        29        55        14        54        14        76        37        36        73        16        65        44        57        38        31        36        48        73        50        74        50        23        49        10        15        53        40        27        48        46        69        48        37        56        46        73        61        25        54        50        36        36        67        51        54        30        23        30        50        37        23        54        13        31        74         
 77        27        99        37        60        34        20        76        42        24        94        47        6        72        59        20        37        17        59        49        46        76        69        81        70        30        82        28        49        58        64        59        76        86        82        42        26        32        9        43        10000000        57        83        90        89        22        21        77        43        46        42        68        77        77        106        51        81        11        55        54        39        76        20        104        80        109        93        37        17        53        57        96        46        22        45        86        95        14        22        84        10        94        42        24        76        37        26        75        102        94        30        71        24        28        92        72        26        80        55        67        102         
 30        44        51        21        49        26        49        18        45        63        45        21        53        15        46        49        30        57        56        53        30        41        12        25        26        42        25        36        9        18        57        2        57        45        53        37        51        32        51        34        57        10000000        34        59        32        36        54        21        21        35        48        51        60        58        49        19        31        64        32        8        19        30        72        47        23        53        64        56        71        32        28        54        19        35        29        39        38        69        38        27        65        40        48        52        21        37        64        62        47        65        48        30        49        59        49        21        51        23        31        60        45         
 6        76        17        47        45        58        80        27        54        80        11        37        78        26        43        69        63        78        54        57        40        21        31        14        14        59        27        56        42        49        89        32        87        17        32        70        68        65        79        45        83        34        10000000        34        20        64        73        35        40        69        57        82        46        43        32        32        48        88        65        41        51        9        93        34        21        29        40        67        93        35        30        23        53        62        63        6        38        92        68        25        89        48        81        70        36        71        81        51        23        40        81        16        67        75        17        13        68        28        33        53        38         
 32        93        30        61        32        76        94        59        49        77        31        48        84        58        32        71        83        78        38        47        45        18        61        47        33        60        60        63        65        76        115        57        116        17        8        92        67        83        89        47        90        59        34        10000000        54        77        73        67        53        92        51        110        21        19        62        46        81        90        91        67        70        30        92        66        54        55        6        61        94        38        36        17        76        73        85        28        72        93        83        59        92        81        102        69        68        91        78        26        52        7        98        29        68        71        20        42        67        61        36        33        71         
 24        75        31        52        62        58        81        15        67        91        26        45        84        17        59        78        61        86        71        72        52        41        22        10        29        69        10        64        41        41        79        30        74        37        52        65        79        64        82        57        89        32        20        54        10000000        67        83        20        47        63        70        70        66        63        17        41        32        95        56        37        51        27        101        17        9        22        60        80        101        49        43        41        49        66        57        26        18        99        70        8        96        28        76        80        22        67        92        70        16        61        79        33        77        86        36        20        79        12        47        72        18         
 59        18        81        17        51        13        18        54        36        35        75        29        19        50        49        22        18        27        53        45        32        61        47        60        51        24        60        17        27        37        52        37        62        69        69        27        28        14        15        31        22        36        64        77        67        10000000        27        55        25        29        38        54        68        67        84        33        60        31        37        33        17        57        39        82        59        88        80        38        37        39        41        79        25        4        26        67        73        35        6        63        31        72        32        27        54        22        37        67        82        81        23        53        25        34        75        52        28        59        41        61        80         
 67        41        87        33        42        39        37        72        24        9        82        38        16        69        41        5        45        5        39        29        33        62        67        74        59        15        78        19        48        61        78        55        89        72        65        53        6        41        26        29        21        54        73        73        83        27        10000000        76        35        56        23        81        58        58        100        42        83        17        64        55        41        64        20        99        75        101        75        16        21        39        44        81        50        24        53        74        93        20        32        80        19        94        57        4        75        49        10        55        95        76        46        59        6        8        79        64        6        77        41        48        98         
 35        59        49        43        66        44        66        8        66        84        43        41        74        10        63        70        45        78        74        73        50        51        9        21        36        64        9        57        28        23        59        21        54        51        64        48        73        48        70        55        77        21        35        67        20        55        76        10000000        42        45        69        50        74        72        33        39        14        85        37        23        38        37        93        29        14        41        73        77        92        50        45        57        33        55        40        41        18        89        56        12        86        19        58        74        2        50        86        77        36        74        62        40        71        80        52        26        73        8        49        77        25         
 34        40        56        9        32        24        42        37        25        43        50        4        38        34        29        30        31        39        38        33        11        36        32        38        26        22        43        17        18        34        66        21        71        44        45        41        32        31        39        14        43        21        40        53        47        25        35        42        10000000        42        28        63        47        45        64        8        52        48        44        24        18        33        54        64        40        67        57        35        54        16        16        54        27        22        35        43        58        52        30        45        49        60        50        33        41        39        45        48        60        58        46        28        30        39        50        29        32        42        17        44        63         
 65        19        86        34        74        19        27        48        62        64        80        45        45        46        71        51        12        56        78        71        52        74        41        59        60        52        53        44        28        22        24        37        32        80        85        4        57        15        36        54        46        35        69        92        63        29        56        45        42        10000000        64        24        89        87        78        47        43        56        11        28        23        66        65        74        55        85        97        67        63        58        57        89        17        33        7        74        61        60        25        56        56        56        13        57        43        9        66        89        79        98        20        64        54        64        84        56        57        51        59        85        69         
 50        55        68        32        19        45        53        63        3        27        64        27        36        60        18        22        53        28        17        7        19        41        59        61        43        13        69        21        46        61        89        49        96        51        43        63        17        50        44        14        42        48        57        51        70        38        23        69        28        64        10000000        88        35        35        86        30        80        40        69        52        43        47        41        87        64        86        52        11        43        21        27        60        53        33        59        56        84        43        44        70        42        88        69        19        68        59        27        32        80        53        61        41        19        21        59        50        17        68        23        25        88         
 80        41        98        57        96        43        49        56        86        88        92        66        69        56        93        76        36        80        101        95        74        92        51        70        77        76        60        68        46        33        11        52        8        96        104        27        81        39        59        76        68        51        82        110        70        54        81        50        63        24        88        10000000        110        107        82        67        41        79        19        43        46        81        88        76        64        91        115        91        86        79        77        104        36        57        29        88        62        83        49        63        79        53        28        81        48        32        90        111        86        116        39        81        78        88        98        70        81        58        79        107        70         
 42        85        48        55        17        71        85        67        35        61        47        44        71        64        19        57        79        63        20        30        37        25        67        57        39        47        70        52        64        78        113        59        117        32        16        88        52        78        78        37        77        60        46        21        66        68        58        74        47        89        35        110        10000000        3        77        43        88        75        90        67        66        39        76        81        64        72        19        44        78        31        33        36        74        64        83        42        83        78        74        69        78        91        97        54        75        86        61        6        68        20        91        35        54        55        38        49        52        70        30        13        84         
 39        84        45        53        16        69        84        64        34        61        45        42        71        61        18        57        77        63        21        30        35        22        64        54        36        46        67        51        61        75        111        57        114        29        13        86        52        76        77        36        77        58        43        19        63        67        58        72        45        87        35        107        3        10000000        74        40        85        75        88        65        64        36        76        78        61        70        18        44        78        29        31        34        72        63        81        39        80        78        73        66        77        88        96        54        72        84        61        8        65        19        90        32        53        55        35        46        52        67        28        14        81         
 37        91        34        69        76        74        97        31        83        107        31        62        101        34        74        95        77        103        85        88        68        53        38        26        44        86        25        81        58        56        91        47        84        46        62        81        95        80        99        73        106        49        32        62        17        84        100        33        64        78        86        82        77        74        10000000        58        41        112        70        53        68        40        118        6        26        11        68        96        118        65        59        46        65        83        73        36        20        116        87        22        113        31        91        97        35        83        109        82        10        68        95        47        94        103        42        36        95        27        63        85        14         
 26        48        48        16        30        30        50        33        27        49        42        4        46        29        27        37        38        46        36        34        11        28        29        32        18        28        38        24        21        35        71        19        74        36        39        47        37        38        47        16        51        19        32        46        41        33        42        39        8        47        30        67        43        40        58        10000000        50        55        48        25        24        25        61        58        34        59        50        39        61        13        10        46        31        30        40        35        53        60        38        40        57        57        57        39        38        45        51        44        53        51        53        20        36        45        42        22        37        38        13        41        58         
 49        60        62        51        79        47        67        22        76        92        57        52        79        24        76        78        46        85        86        84        61        65        21        35        49        73        22        65        35        23        51        31        43        65        77        46        81        50        73        65        81        31        48        81        32        60        83        14        52        43        80        41        88        85        41        50        10000000        90        33        29        43        51        99        35        28        50        87        87        97        62        57        71        36        61        39        55        21        95        60        24        91        13        55        82        13        49        94        91        46        88        62        54        79        89        65        40        81        21        61        90        29         
 81        38        102        43        59        43        31        83        41        17        97        51        12        79        58        19        47        12        56        46        48        78        76        86        73        31        89        31        57        67        75        66        87        88        82        53        23        42        20        44        11        64        88        90        95        31        17        85        48        56        40        79        75        75        112        55        90        10000000        66        63        47        79        9        111        87        115        92        32        7        55        59        98        55        30        55        89        103        4        32        91        2        102        53        21        84        48        18        72        108        93        41        74        22        22        95        77        23        88        57        64        109         
 62        30        82        38        76        25        38        41        67        72        76        47        55        40        73        59        19        64        81        76        55        73        35        54        58        58        46        50        27        16        24        34        27        78        85        14        64        24        46        57        55        32        65        91        56        37        64        37        44        11        69        19        90        88        70        48        33        66        10000000        24        27        63        75        66        49        78        96        73        72        60        57        86        17        40        11        71        52        70        34        49        65        46        22        64        35        19        74        91        72        97        30        62        61        71        81        52        64        44        60        88        60         
 38        38        59        22        55        21        44        22        49        63        52        26        51        20        52        49        24        57        61        57        35        49        15        32        34        44        29        37        6        10        49        10        50        53        61        29        52        27        47        38        54        8        41        67        37        33        55        23        24        28        52        43        67        65        53        25        29        63        24        10000000        16        38        70        51        29        59        72        59        69        38        34        62        12        33        21        47        40        67        34        31        63        40        40        53        21        30        65        69        53        73        42        38        50        60        57        28        52        27        38        66        47         
 46        25        68        11        51        7        30        37        40        49        62        22        36        34        48        35        13        42        55        49        29        52        30        44        40        32        44        24        10        21        48        21        53        59        63        23        39        14        32        31        39        19        51        70        51        17        41        38        18        23        43        46        66        64        68        24        43        47        27        16        10000000        46        55        66        43        73        74        47        54        35        34        69        10        17        17        55        56        51        19        46        48        55        33        40        37        21        51        66        66        75        30        43        36        47        64        38        39        42        35        62        63         
 3        70        23        40        36        52        74        29        45        71        18        29        70        27        34        60        58        69        45        48        31        14        31        18        6        50        31        48        38        47        87        29        87        15        27        66        59        60        72        36        76        30        9        30        27        57        64        37        33        66        47        81        39        36        40        25        51        79        63        38        46        10000000        84        42        25        38        36        58        85        26        21        24        49        55        59        10        44        83        62        30        81        52        77        61        38        66        72        43        32        37        76        6        59        66        19        11        59        32        24        45        45         
 86        47        107        50        60        52        40        90        43        15        102        57        20        86        60        24        56        15        56        46        53        81        84        92        78        34        96        37        64        76        84        73        96        91        84        62        25        51        29        48        20        72        93        92        101        39        20        93        54        65        41        88        76        76        118        61        99        9        75        70        55        84        10000000        117        93        120        93        32        4        59        64        101        64        38        64        94        110        6        41        98        10        110        62        23        91        57        15        72        114        94        50        78        25        21        98        83        25        95        61        64        116         
 39        88        39        67        78        72        94        28        84        107        36        62        100        32        76        94        74        103        87        89        69        56        35        26        45        85        22        81        55        52        86        45        78        50        66        77        95        77        97        73        104        47        34        66        17        82        99        29        64        74        87        76        81        78        6        58        35        111        66        51        66        42        117        10000000        24        17        72        97        117        66        60        51        62        81        69        39        14        115        84        19        112        25        87        96        31        79        109        85        16        73        91        48        94        102        47        37        95        24        64        88        7         
 22        66        35        43        58        49        72        7        61        83        29        38        76        9        55        70        52        78        66        67        45        39        14        7        25        61        6        57        32        33        72        21        68        38        51        57        71        55        74        50        80        23        21        54        9        59        75        14        40        55        64        64        64        61        26        34        28        87        49        29        43        25        93        24        10000000        31        60        73        93        43        38        43        41        58        49        27        20        91        61        6        88        28        68        72        16        59        85        67        24        61        70        29        70        79        38        15        71        7        42        68        24         
 35        97        26        72        74        79        102        37        83        109        25        64        104        40        72        97        83        105        82        86        69        49        44        29        43        87        32        83        63        63        100        52        94        41        57        87        97        86        103        74        109        53        29        55        22        88        101        41        67        85        86        91        72        70        11        59        50        115        78        59        73        38        120        17        31        10000000        61        96        120        64        59        39        71        87        80        31        30        119        91        29        116        42        98        98        43        89        110        77        7        61        101        45        95        103        36        37        97        34        62        81        24         
 38        97        35        65        33        81        98        65        51        79        37        53        87        64        34        73        88        80        38        48        48        23        67        53        39        62        67        66        70        82        120        63        122        23        12        97        69        88        92        50        93        64        40        6        60        80        75        73        57        97        52        115        19        18        68        50        87        92        96        72        74        36        93        72        60        61        10000000        62        95        41        41        22        81        77        90        34        78        95        86        66        94        88        107        71        74        95        79        24        58        1        103        35        70        72        26        48        69        68        40        32        77         
 61        55        78        37        29        48        51        72        13        17        75        36        31        69        29        18        55        21        24        14        28        52        68        70        53        15        78        23        52        67        90        57        99        62        53        65        11        52        41        23        37        56        67        61        80        38        16        77        35        67        11        91        44        44        96        39        87        32        73        59        47        58        32        97        73        96        62        10000000        34        32        38        71        57        34        62        67        93        35        44        79        34        96        70        13        77        60        17        40        90        63        60        52        14        11        69        60        11        77        34        32        97         
 87        44        107        50        62        50        37        89        44        17        102        57        18        86        61        24        53        16        58        48        53        82        83        92        79        35        95        37        63        74        81        72        94        92        86        59        26        49        26        49        17        71        93        94        101        37        21        92        54        63        43        86        78        78        118        61        97        7        72        69        54        85        4        117        93        120        95        34        10000000        59        64        102        62        36        62        94        109        3        39        98        7        109        59        25        90        54        18        74        114        96        47        79        26        23        99        83        26        94        62        66        115         
 29        55        48        24        17        40        57        44        18        45        44        13        47        40        14        35        48        44        24        23        7        23        41        39        21        24        49        25        33        48        82        31        86        33        30        57        34        47        51        10        53        32        35        38        49        39        39        50        16        58        21        79        31        29        65        13        62        55        60        38        35        26        59        66        43        64        41        32        59        10000000        6        43        43        35        52        36        63        59        45        49        57        68        67        35        50        55        46        32        58        42        61        20        33        40        40        29        34        48        2        29        67         
 23        56        43        25        21        40        58        38        24        50        38        12        51        35        18        40        47        48        29        29        11        20        36        34        16        29        43        28        31        45        81        27        84        29        29        57        39        47        54        15        57        28        30        36        43        41        44        45        16        57        27        77        33        31        59        10        57        59        57        34        34        21        64        60        38        59        41        38        64        6        10000000        39        41        37        50        30        58        63        46        44        61        63        66        40        45        55        52        34        52        42        62        15        38        45        36        23        39        43        4        33        61         
 24        93        13        62        43        76        96        49        58        87        16        50        90        49        43        78        82        86        51        58        49        20        53        36        29        67        49        67        62        71        111        52        109        10        21        90        76        83        93        53        96        54        23        17        41        79        81        57        54        89        60        104        36        34        46        46        71        98        86        62        69        24        101        51        43        39        22        71        102        43        39        10000000        73        76        83        16        59        101        84        47        99        69        101        77        59        90        87        42        36        22        99        26        76        81        6        34        76        50        41        47        57         
 49        26        70        21        59        12        33        34        50        58        64        30        43        32        56        45        12        51        64        59        38        58        27        44        44        42        40        34        11        12        40        21        44        64        69        17        49        15        38        40        46        19        53        76        49        25        50        33        27        17        53        36        74        72        65        31        36        55        17        12        10        49        64        62        41        71        81        57        62        43        41        73        10000000        26        10        58        51        59        24        43        55        48        28        49        31        18        60        74        65        82        30        47        46        56        68        40        49        38        43        71        58         
 56        22        78        15        47        15        22        53        32        32        72        26        18        50        45        19        21        25        49        40        28        57        47        58        49        20        60        13        27        38        56        36        65        66        65        30        24        18        17        27        22        35        62        73        66        4        24        55        22        33        33        57        64        63        83        30        61        30        40        33        17        55        38        81        58        87        77        34        36        35        37        76        26        10000000        29        65        73        34        11        62        30        72        36        24        54        26        34        63        80        77        28        50        21        31        72        50        24        58        37        57        79         
 59        21        80        28        68        14        28        42        57        61        74        39        44        40        65        48        8        53        72        66        46        68        35        53        54        48        48        39        21        17        30        31        37        73        79        8        53        13        36        48        45        29        63        85        57        26        53        40        35        7        59        29        83        81        73        40        39        55        11        21        17        59        64        69        49        80        90        62        62        52        50        83        10        29        10000000        68        57        59        23        51        55        52        19        53        38        10        63        83        73        91        23        57        50        60        77        49        53        46        52        79        65         
 9        80        13        50        42        62        84        33        53        81        8        39        80        33        41        70        68        79        51        56        41        17        37        20        16        59        33        58        47        55        95        37        93        11        27        75        69        69        82        46        86        39        6        28        26        67        74        41        43        74        56        88        42        39        36        35        55        89        71        47        55        10        94        39        27        31        34        67        94        36        30        16        58        65        68        10000000        44        93        72        32        91        54        86        71        42        75        82        47        26        34        85        16        68        75        11        18        69        34        33        50        43         
 41        77        48        60        78        61        84        21        80        101        43        57        91        24        75        87        62        96        86        87        65        58        26        26        45        80        15        74        46        40        72        37        64        55        70        64        89        66        87        69        95        38        38        72        18        73        93        18        58        61        84        62        83        80        20        53        21        103        52        40        56        44        110        14        20        30        78        93        109        63        58        59        51        73        57        44        10000000        107        74        14        103        11        74        90        19        67        103        87        27        78        80        49        87        97        53        35        89        16        62        88        8         
 85        41        106        48        62        48        34        87        44        18        101        55        16        83        61        23        51        15        58        48        52        81        81        90        77        34        93        35        61        71        78        70        91        91        85        57        26        46        24        48        14        69        92        93        99        35        20        89        52        60        43        83        78        78        116        60        95        4        70        67        51        83        6        115        91        119        95        35        3        59        63        101        59        34        59        93        107        10000000        36        96        4        106        56        24        88        51        19        75        112        96        44        78        25        24        98        81        26        92        61        67        113         
 63        11        85        22        58        13        12        56        42        39        79        35        21        53        55        27        15        31        59        51        38        66        49        63        56        31        62        23        29        36        47        40        57        74        75        22        33        10        13        37        22        38        68        83        70        6        32        56        30        25        44        49        74        73        87        38        60        32        34        34        19        62        41        84        61        91        86        44        39        45        46        84        24        11        23        72        74        36        10000000        65        32        72        26        33        55        17        41        73        85        87        17        58        30        39        80        56        33        61        46        67        81         
 28        69        38        48        64        52        75        9        67        88        33        44        80        12        61        75        55        84        72        73        51        45        16        12        31        67        3        62        36        34        71        26        66        43        57        59        77        58        78        56        84        27        25        59        8        63        80        12        45        56        70        63        69        66        22        40        24        91        49        31        46        30        98        19        6        29        66        79        98        49        44        47        43        62        51        32        14        96        65        10000000        92        22        69        78        14        61        90        73        23        66        73        35        75        84        42        21        77        5        48        74        18         
 83        37        104        44        61        44        30        84        43        19        99        52        12        80        60        21        47        14        58        48        50        80        77        87        75        32        90        33        57        67        74        67        86        89        84        52        25        42        19        46        10        65        89        92        96        31        19        86        49        56        42        79        78        77        113        57        91        2        65        63        48        81        10        112        88        116        94        34        7        57        61        99        55        30        55        91        103        4        32        92        10000000        103        52        23        84        47        20        74        109        95        40        75        24        24        96        78        25        88        59        66        110         
 50        73        59        61        84        59        80        25        84        102        54        60        91        28        81        89        59        96        92        91        69        67        28        34        52        82        21        76        46        36        63        39        54        65        79        59        91        63        86        73        94        40        48        81        28        72        94        19        60        56        88        53        91        88        31        57        13        102        46        40        55        52        110        25        28        42        88        96        109        68        63        69        48        72        52        54        11        106        72        22        103        10000000        68        92        19        63        104        95        38        88        75        57        89        99        64        42        91        21        67        95        18         
 77        16        99        42        81        27        22        61        68        64        92        54        44        59        79        53        19        56        84        76        60        85        54        72        72        56        66        49        39        35        22        50        35        91        95        11        59        20        33        61        42        48        81        102        76        32        57        58        50        13        69        28        97        96        91        57        55        53        22        40        33        77        62        87        68        98        107        70        59        67        66        101        28        36        19        86        74        56        26        69        52        68        10000000        58        56        12        66        97        92        108        12        75        56        65        96        68        59        64        68        92        82         
 64        43        83        31        38        39        39        70        20        11        79        35        19        66        37        5        45        9        35        25        30        58        64        71        55        11        76        17        47        60        79        53        89        68        61        54        2        42        28        25        24        52        70        69        80        27        4        74        33        57        19        81        54        54        97        39        82        21        64        53        40        61        23        96        72        98        71        13        25        35        40        77        49        24        53        71        90        24        33        78        23        92        58        10000000        73        49        12        51        92        72        48        55        3        7        75        61        2        75        38        44        96         
 36        57        51        42        66        42        64        9        65        83        45        41        72        11        63        69        43        77        74        73        50        52        9        23        36        63        11        56        27        21        57        20        52        52        64        46        72        47        68        54        76        21        36        68        22        54        75        2        41        43        68        48        75        72        35        38        13        84        35        21        37        38        91        31        16        43        74        77        90        50        45        59        31        54        38        42        19        88        55        14        84        19        56        73        10000000        48        85        78        37        75        61        41        70        80        53        27        72        9        49        78        27         
 66        11        88        31        70        15        19        52        57        56        82        43        37        49        67        44        8        48        73        66        49        73        45        62        60        46        58        38        28        27        30        39        40        80        84        5        50        9        28        50        37        37        71        91        67        22        49        50        39        9        59        32        86        84        83        45        49        48        19        30        21        66        57        79        59        89        95        60        54        55        55        90        18        26        10        75        67        51        17        61        47        63        12        49        48        10000000        58        86        83        96        13        64        47        56        85        57        50        56        56        81        75         
 75        50        94        43        46        49        45        82        29        2        90        47        22        78        46        16        55        10        41        31        41        68        77        83        67        23        88        29        59        72        87        66        98        78        70        63        13        51        33        36        26        64        81        78        92        37        10        86        45        66        27        90        61        61        109        51        94        18        74        65        51        72        15        109        85        110        79        17        18        46        52        87        60        34        63        82        103        19        41        90        20        104        66        12        85        58        10000000        57        103        80        54        66        15        7        85        73        13        87        49        49        108         
 46        84        53        55        16        71        84        70        32        57        53        44        69        67        18        54        78        60        16        26        37        29        69        61        42        45        73        50        65        79        114        61        118        37        21        88        49        77        76        36        75        62        51        26        70        67        55        77        48        89        32        111        6        8        82        44        91        72        91        69        66        43        72        85        67        77        24        40        74        32        34        42        74        63        83        47        87        75        73        73        74        95        97        51        78        86        57        10000000        73        25        90        38        51        51        43        52        49        73        31        8        88         
 29        90        24        65        68        73        96        31        77        102        21        57        98        33        66        90        76        99        77        80        62        44        38        22        37        80        26        77        56        57        95        45        89        36        53        81        90        79        97        67        102        47        23        52        16        82        95        36        60        79        80        86        68        65        10        53        46        108        72        53        66        32        114        16        24        7        58        90        114        58        52        36        65        80        73        26        27        112        85        23        109        38        92        92        37        83        103        73        10000000        58        95        39        89        97        32        31        90        28        56        76        22         
 39        98        35        66        34        81        99        66        52        80        37        54        88        64        35        74        89        81        39        49        49        24        68        54        40        63        67        66        71        83        121        64        122        23        13        98        70        89        93        51        94        65        40        7        61        81        76        74        58        98        53        116        20        19        68        51        88        93        97        73        75        37        94        73        61        61        1        63        96        42        42        22        82        77        91        34        78        96        87        66        95        88        108        72        75        96        80        25        58        10000000        103        35        71        73        26        48        70        68        41        33        77         
 76        6        98        37        75        23        10        64        59        52        92        50        32        61        72        43        18        44        76        68        55        82        57        73        70        47        70        40        39        40        34        50        47        89        91        16        49        16        21        54        30        48        81        98        79        23        46        62        46        20        61        39        91        90        95        53        62        41        30        42        30        76        50        91        70        101        103        60        47        61        62        99        30        28        23        85        80        44        17        73        40        75        12        48        61        13        54        90        95        103        10000000        73        46        54        94        68        49        68        63        85        87         
 9        67        28        36        30        49        70        32        38        65        24        24        65        30        27        55        56        63        39        42        25        11        33        23        4        44        35        43        36        47        86        28        87        16        24        64        53        57        67        30        71        30        16        29        33        53        59        40        28        64        41        81        35        32        47        20        54        74        62        38        43        6        78        48        29        45        35        52        79        20        15        26        47        50        57        16        49        78        58        35        75        57        75        55        41        64        66        38        39        35        73        10000000        53        60        22        14        53        36        18        39        51         
 61        41        81        28        37        36        37        67        19        14        76        32        18        63        36        4        42        10        35        25        27        56        61        68        53        9        73        13        44        57        77        50        86        66        60        51        3        39        27        23        24        49        67        68        77        25        6        71        30        54        19        78        54        53        94        36        79        22        61        50        36        59        25        94        70        95        70        14        26        33        38        76        46        21        50        68        87        25        30        75        24        89        56        3        70        47        15        51        89        71        46        53        10000000        10        73        58        3        72        35        44        93         
 68        49        87        38        39        46        44        76        22        6        83        41        23        73        39        12        52        11        35        25        35        61        71        76        60        17        82        23        54        67        86        60        96        72        64        61        8        48        33        30        28        59        75        71        86        34        8        80        39        64        21        88        55        55        103        45        89        22        71        60        47        66        21        102        79        103        72        11        23        40        45        81        56        31        60        75        97        24        39        84        24        99        65        7        80        56        7        51        97        73        54        60        10        10000000        79        66        8        81        42        43        102         
 19        89        10        58        43        71        92        44        56        85        11        46        86        43        41        75        77        83        51        57        46        17        48        30        24        64        44        64        57        65        105        47        104        7        22        85        73        78        89        50        92        49        17        20        36        75        79        52        50        84        59        98        38        35        42        42        65        95        81        57        64        19        98        47        38        36        26        69        99        40        36        6        68        72        77        11        53        98        80        42        96        64        96        75        53        85        85        43        32        26        94        22        73        79        10000000        29        73        45        38        48        52         
 10        63        30        35        43        45        68        18        47        71        24        26        67        16        40        59        50        68        51        52        32        25        20        10        10        50        21        46        29        37        76        19        75        26        38        57        59        52        67        37        72        21        13        42        20        52        64        26        29        56        50        70        49        46        36        22        40        77        52        28        38        11        83        37        15        37        48        60        83        29        23        34        40        50        49        18        35        81        56        21        78        42        68        61        27        57        73        52        31        48        68        14        58        66        29        10000000        59        21        27        53        38         
 62        44        81        31        36        39        40        69        18        12        77        33        20        65        35        6        46        11        33        23        28        56        64        69        54        10        75        16        46        60        80        52        89        66        59        55        0        42        30        23        26        51        68        67        79        28        6        73        32        57        17        81        52        52        95        37        81        23        64        52        39        59        25        95        71        97        69        11        26        34        39        76        49        24        53        69        89        26        33        77        25        91        59        2        72        50        13        49        90        70        49        53        3        8        73        59        10000000        74        36        42        95         
 29        64        42        45        63        48        71        5        65        85        36        41        76        9        60        72        50        80        71        71        49        46        12        14        31        64        2        59        32        29        66        22        62        45        58        54        74        53        73        54        80        23        28        61        12        59        77        8        42        51        68        58        70        67        27        38        21        88        44        27        42        32        95        24        7        34        68        77        94        48        43        50        38        58        46        34        16        92        61        5        88        21        64        75        9        56        87        73        28        68        68        36        72        81        45        21        74        10000000        47        74        21         
 27        57        46        26        17        41        58        42        21        48        41        13        49        39        14        38        49        46        25        25        9        21        40        38        19        27        47        27        33        48        83        31        87        31        28        58        36        48        53        13        55        31        33        36        47        41        41        49        17        59        23        79        30        28        63        13        61        57        60        38        35        24        61        64        42        62        40        34        62        2        4        41        43        37        52        33        62        61        46        48        59        67        68        38        49        56        49        31        56        41        63        18        35        42        38        27        36        47        10000000        29        65         
 48        79        58        51        12        66        78        70        26        49        57        41        61        67        15        47        74        52        9        19        33        33        69        63        43        38        74        44        62        77        109        60        115        41        27        84        42        72        69        31        67        60        53        33        72        61        48        77        44        85        25        107        13        14        85        41        90        64        88        66        62        45        64        88        68        81        32        32        66        29        33        47        71        57        79        50        88        67        67        74        66        95        92        44        78        81        49        8        76        33        85        39        44        43        48        53        42        74        29        10000000        90         
 42        84        45        66        80        69        91        26        85        106        41        62        98        30        78        93        70        101        89        90        69        59        33        28        47        85        20        80        53        48        80        43        72        54        70        72        95        73        94        74        102        45        38        71        18        80        98        25        63        69        88        70        84        81        14        58        29        109        60        47        63        45        116        7        24        24        77        97        115        67        61        57        58        79        65        43        8        113        81        18        110        18        82        96        27        75        108        88        22        77        87        51        93        102        52        38        95        21        65        90        10000000         
 DEMAND_SECTION: 
 0   586   0 
 1   7   1 
 2   11   7 
 3   5   6 
 4   3   11 
 5   3   0 
 6   8   1 
 7   3   2 
 8   5   6 
 9   1   0 
 10   4   0 
 11   2   0 
 12   7   4 
 13   1   0 
 14   2   8 
 15   17   0 
 16   14   3 
 17   2   1 
 18   8   11 
 19   2   6 
 20   7   0 
 21   4   1 
 22   2   1 
 23   1   0 
 24   3   10 
 25   12   0 
 26   4   1 
 27   3   1 
 28   1   0 
 29   2   6 
 30   10   0 
 31   16   3 
 32   9   5 
 33   8   10 
 34   4   12 
 35   19   0 
 36   4   1 
 37   10   6 
 38   2   1 
 39   1   4 
 40   4   0 
 41   11   2 
 42   3   2 
 43   1   0 
 44   3   8 
 45   3   0 
 46   11   2 
 47   11   6 
 48   7   10 
 49   3   12 
 50   18   0 
 51   7   1 
 52   3   1 
 53   4   5 
 54   1   3 
 55   10   0 
 56   12   3 
 57   1   0 
 58   7   9 
 59   4   12 
 60   19   0 
 61   12   2 
 62   2   1 
 63   3   4 
 64   4   14 
 65   12   0 
 66   15   3 
 67   7   4 
 68   5   6 
 69   2   6 
 70   5   0 
 71   1   0 
 72   5   2 
 73   2   3 
 74   3   8 
 75   1   0 
 76   2   0 
 77   9   6 
 78   8   10 
 79   1   3 
 80   18   0 
 81   4   1 
 82   6   3 
 83   2   3 
 84   2   8 
 85   17   0 
 86   14   3 
 87   5   3 
 88   1   0 
 89   1   4 
 90   2   0 
 91   12   3 
 92   4   2 
 93   7   9 
 94   1   0 
 95   4   0 
 96   6   1 
 97   1   0 
 98   5   6 
 99   3   9 
 100   2   0 
 101   0   332 
