NAME: ..//instances//e_vigo//TSP_PD_vrp200_100_3_0.00.tspBeta0.000000 
COMMENT: TSPSimoultaneousPickUpandDelivery_2008 
TYPE: TSPDC 
DIMENSION: 102 
CAPACITY: 561 
EDGE_WEIGHT_TYPE: EXPLICIT 
EDGE_WEIGHT_FORMAT: FULL_MATRIX 
EDGE_WEIGHT_SECTION: 
10000000        85        59        93        11        74        89        87        56        57        16        43        17        7        64        45        99        4        96        86        23        63        20        85        55        78        64        18        69        100        68        83        89        94        58        19        56        93        77        29        86        33        79        96        80        21        77        83        44        48        49        55        86        9        64        21        43        55        110        83        92        75        95        31        103        80        112        87        78        89        62        83        84        78        101        45        77        97        42        49        13        115        85        75        17        69        71        76        54        100        84        59        115        26        103        73        79        36        34        86        53         
 85        10000000        26        63        82        98        77        53        29        93        74        85        81        79        107        59        19        86        94        90        69        101        85        66        30        48        72        80        128        85        62        22        63        79        101        88        43        33        34        58        101        58        16        47        50        65        53        100        54        61        66        33        50        77        42        94        75        114        95        20        86        81        25        76        93        93        94        28        89        93        41        85        45        10        18        60        75        75        107        39        72        101        8        14        69        108        17        83        71        77        32        78        99        87        99        112        12        69        51        55        74         
 59        26        10000000        61        56        81        69        51        3        72        48        63        55        52        87        37        41        60        85        79        43        81        60        60        4        43        56        54        105        79        49        30        59        73        80        62        25        42        32        32        87        34        24        52        45        38        46        85        31        41        46        13        49        50        29        68        53        91        90        28        77        67        40        53        86        79        90        36        75        82        27        74        44        20        43        38        63        72        82        15        46        96        27        18        42        89        14        69        52        73        36        60        95        62        91        92        22        45        25        52        55         
 93        63        61        10000000        84        54        19        10        62        60        93        63        79        86        72        49        55        92        36        36        70        65        80        11        64        18        35        78        97        23        26        40        5        18        69        83        41        32        30        68        50        87        47        19        16        75        17        50        50        46        46        74        13        89        33        88        55        87        32        42        28        34        42        105        32        44        31        35        40        38        36        33        18        55        59        48        26        13        88        54        82        38        55        51        78        69        52        35        44        14        30        45        36        77        39        71        51        58        68        9        46         
 11        82        56        84        10000000        63        79        78        53        46        22        32        6        7        54        36        94        8        85        76        15        52        10        76        53        70        54        7        62        90        59        78        80        84        48        10        49        86        70        24        75        36        75        88        72        17        68        72        36        39        39        54        78        13        57        14        33        47        100        77        82        64        89        39        92        69        102        81        68        79        55        73        76        74        97        36        66        88        35        44        12        105        82        71        13        59        67        65        44        90        77        48        104        16        92        63        75        26        31        78        43         
 74        98        81        54        63        10000000        36        56        81        18        82        31        57        69        21        45        98        71        29        21        57        16        54        43        81        54        26        56        45        41        36        80        49        40        21        56        57        79        66        64        13        88        83        70        54        66        49        9        51        41        36        90        58        74        56        57        34        39        47        81        31        20        87        99        39        11        50        78        14        22        57        22        61        88        102        44        28        47        46        66        69        50        93        84        66        16        81        19        29        48        72        21        50        48        35        18        86        44        70        54        27         
 89        77        69        19        79        36        10000000        25        70        46        91        52        73        82        56        46        72        87        17        17        67        49        73        11        72        29        25        72        80        11        22        55        16        5        53        75        46        50        43        67        30        90        61        38        27        73        24        31        50        42        40        82        28        86        40        79        47        73        22        57        9        18        60        106        17        26        23        51        22        19        42        14        33        68        76        45        13        11        75        59        79        28        70        64        75        52        63        18        35        13        46        33        27        69        22        54        65        53        70        23        36         
 87        53        51        10        78        56        25        10000000        53        60        85        60        74        80        73        43        47        86        43        41        64        66        75        14        54        9        34        73        97        32        23        31        10        26        68        78        33        25        20        60        54        79        37        14        7        67        10        54        43        40        41        64        3        82        24        83        51        87        41        33        34        36        34        97        40        48        41        26        43        43        27        37        8        45        51        42        28        22        85        45        75        48        46        41        71        71        42        37        41        24        21        43        46        73        47        73        42        53        60        2        43         
 56        29        3        62        53        81        70        53        10000000        71        45        61        53        50        85        36        44        57        85        79        40        80        57        61        1        44        56        52        104        81        50        33        61        74        79        60        25        45        34        29        87        31        26        54        47        36        47        85        30        40        45        12        50        47        30        65        52        89        91        31        78        67        43        50        87        79        92        38        75        82        28        74        46        23        46        37        63        73        80        14        43        98        30        21        40        88        17        69        52        75        38        60        96        60        91        91        25        43        22        54        54         
 57        93        72        60        46        18        46        60        71        10000000        66        14        40        52        14        35        97        53        45        35        42        8        37        50        72        55        26        39        37        54        37        78        55        51        9        38        50        80        65        50        31        74        79        74        56        51        51        27        41        32        27        80        61        58        52        40        20        27        62        79        45        28        87        83        54        26        65        77        27        37        53        34        63        83        101        34        35        57        30        57        53        65        89        79        51        16        76        28        22        59        72        17        66        31        51        20        82        30        57        58        19         
 16        74        48        93        22        82        91        85        45        66        10000000        52        27        15        76        45        89        19        101        92        26        73        32        86        45        76        68        27        83        103        70        76        89        97        69        32        53        87        72        25        94        18        71        92        78        18        76        90        43        50        52        42        84        9        61        36        49        69        113        75        96        80        87        17        107        87        115        81        85        95        59        88        81        68        91        46        80        99        56        43        13        119        76        66        16        81        62        81        58        101        78        65        118        38        108        84        70        40        26        85        59         
 43        85        63        63        32        31        52        60        61        14        52        10000000        26        38        25        26        92        40        55        45        28        21        23        53        62        54        28        26        43        62        37        73        58        57        18        25        43        77        61        37        43        60        73        73        55        37        51        40        32        25        21        68        61        44        47        28        11        29        71        73        53        35        83        70        63        38        73        73        37        48        47        43        62        76        95        25        40        63        25        48        39        75        82        72        37        29        68        36        19        65        68        19        75        18        62        33        75        18        45        59        17         
 17        81        55        79        6        57        73        74        53        40        27        26        10000000        13        48        31        92        14        79        70        13        46        5        71        52        65        48        1        57        84        53        75        74        78        42        7        46        83        67        23        69        39        73        84        67        18        64        66        32        34        34        55        73        18        53        13        27        43        93        75        76        58        86        45        86        63        96        78        62        72        51        66        72        73        95        31        60        82        31        42        15        98        80        69        15        53        65        59        38        84        74        42        98        11        86        57        73        21        31        73        37         
 7        79        52        86        7        69        82        80        50        52        15        38        13        10000000        61        38        92        8        90        81        16        59        17        79        49        71        58        13        68        93        62        77        82        88        54        17        49        86        70        22        81        30        73        89        73        14        70        78        37        41        43        50        79        6        57        21        37        54        104        76        86        69        88        32        97        75        105        80        73        83        55        77        77        72        94        38        70        91        41        43        7        109        79        69        10        66        65        70        48        93        77        53        108        23        97        70        73        29        28        79        47         
 64        107        87        72        54        21        56        73        85        14        76        25        48        61        10000000        49        111        60        50        42        53        7        44        61        86        69        39        48        25        62        51        92        67        60        7        45        65        94        79        62        33        85        94        87        69        62        64        29        55        47        42        93        74        67        67        44        34        19        68        93        52        38        101        93        60        32        71        91        34        43        67        43        76        98        115        48        46        67        28        71        63        71        103        93        61        6        90        38        36        69        86        30        71        38        56        9        96        43        70        71        34         
 45        59        37        49        36        45        46        43        36        35        45        26        31        38        49        10000000        66        43        57        48        22        43        33        41        37        34        24        30        69        57        24        48        44        51        42        36        17        53        37        21        53        45        47        53        36        27        33        51        6        4        9        45        42        40        23        41        16        55        68        48        51        36        58        60        62        46        69        49        42        51        22        44        41        50        69        1        35        54        49        22        34        74        56        45        30        51        42        38        16        56        44        24        73        32        64        55        49        11        26        42        18         
 99        19        41        55        94        98        72        47        44        97        89        92        92        92        111        66        10000000        100        89        87        80        104        96        61        45        45        73        91        134        78        62        19        57        73        105        99        49        22        32        70        99        75        20        36        46        78        50        99        62        67        71        50        44        91        45        105        81        121        86        18        81        80        12        93        86        92        85        21        88        90        45        82        39        21        4        67        72        68        115        50        86        92        14        24        82        111        28        81        75        68        27        81        90        97        93        114        19        77        65        49        78         
 4        86        60        92        8        71        87        86        57        53        19        40        14        8        60        43        100        10000000        93        84        22        59        17        84        57        77        62        15        65        98        67        84        88        92        54        15        56        93        77        30        83        36        80        95        79        22        76        80        43        46        47        57        85        11        64        17        41        51        108        83        90        72        95        35        100        77        110        87        76        86        62        81        84        79        102        44        74        96        38        50        14        113        87        76        18        66        72        73        52        98        84        56        112        23        100        69        80        34        35        85        51         
 96        94        85        36        85        29        17        43        85        45        101        55        79        90        50        57        89        93        10000000        9        75        45        77        29        87        46        33        78        73        15        35        73        33        17        50        80        60        67        60        78        18        102        78        55        44        83        41        21        61        52        49        97        46        94        56        82        52        68        18        75        8        21        77        117        10        18        21        69        18        7        58        13        50        85        93        56        22        24        74        73        88        21        88        81        84        45        80        20        43        25        63        37        21        72        7        45        82        61        82        41        42         
 86        90        79        36        76        21        17        41        79        35        92        45        70        81        42        48        87        84        9        10000000        66        36        68        27        80        43        25        69        66        20        29        70        32        20        41        70        54        66        57        69        13        93        74        55        41        74        37        15        53        44        40        90        44        85        50        73        43        60        26        71        10        13        75        108        18        10        29        66        9        3        52        5        48        81        91        47        16        27        65        66        79        30        84        77        75        37        75        11        34        28        60        28        30        63        16        38        78        52        74        39        33         
 23        69        43        70        15        57        67        64        40        42        26        28        13        16        53        22        80        22        75        66        10000000        49        17        63        40        55        42        12        66        78        46        63        66        72        46        19        34        71        55        11        68        32        60        73        57        9        54        65        21        25        27        44        63        19        42        25        24        51        88        63        71        54        74        42        81        61        90        66        59        69        40        62        61        60        82        22        55        75        41        30        13        94        68        57        9        57        53        55        33        77        62        39        93        20        82        61        61        14        19        63        33         
 63        101        81        65        52        16        49        66        80        8        73        21        46        59        7        43        104        59        45        36        49        10000000        42        54        80        62        32        46        32        56        43        85        60        54        6        44        58        86        72        58        28        81        87        80        62        58        57        25        49        40        35        88        67        65        60        44        28        24        62        86        46        31        94        91        54        26        65        84        28        37        60        36        69        91        108        42        39        60        30        65        60        65        97        87        58        8        84        31        30        62        78        23        66        36        50        12        90        38        65        64        27         
 20        85        60        80        10        54        73        75        57        37        32        23        5        17        44        33        96        17        77        68        17        42        10000000        71        57        67        48        6        52        83        54        79        75        78        38        3        49        86        70        28        67        45        76        86        69        23        65        63        35        35        35        61        75        23        56        9        26        37        93        79        75        57        90        49        85        61        95        81        60        71        54        65        74        77        99        33        60        82        25        47        20        97        84        73        21        49        69        58        37        84        77        41        97        6        84        53        77        22        36        74        36         
 85        66        60        11        76        43        11        14        61        50        86        53        71        79        61        41        61        84        29        27        63        54        71        10000000        62        18        25        70        86        20        17        44        6        13        58        74        37        39        32        61        40        83        50        28        16        68        14        40        44        38        37        72        17        81        30        78        46        77        30        46        20        23        49        100        27        34        31        40        30        29        33        23        22        57        65        41        16        13        77        50        75        37        59        53        71        59        53        24        34        15        35        34        35        68        33        61        54        50        63        12        36         
 55        30        4        64        53        81        72        54        1        72        45        62        52        49        86        37        45        57        87        80        40        80        57        62        10000000        45        57        52        104        82        51        34        62        75        79        60        26        47        35        29        88        30        28        56        48        36        49        86        31        41        46        10        52        47        32        65        52        89        93        33        79        68        44        49        89        80        93        40        76        83        29        75        47        24        46        38        64        74        80        15        42        99        31        22        39        88        18        70        52        76        40        60        98        60        93        92        26        44        22        55        55         
 78        48        43        18        70        54        29        9        44        55        76        54        65        71        69        34        45        77        46        43        55        62        67        18        45        10000000        30        64        93        38        18        27        17        31        64        70        23        25        14        51        55        69        32        19        3        58        5        54        34        32        34        56        8        72        15        75        44        81        48        29        38        35        33        87        45        47        48        24        43        45        18        38        8        39        49        34        28        29        79        35        66        54        41        35        62        68        35        37        35        31        18        39        53        65        51        71        36        45        50        10        38         
 64        72        56        35        54        26        25        34        56        26        68        28        48        58        39        24        73        62        33        25        42        32        48        25        57        30        10000000        47        63        36        11        54        30        30        34        50        31        54        41        45        31        69        57        48        30        50        25        29        29        19        16        66        35        62        30        54        22        53        46        55        28        12        62        84        39        23        48        52        19        28        31        20        37        62        77        23        13        35        52        42        55        51        67        58        52        38        55        14        10        37        47        9        51        44        40        41        60        28        49        32        11         
 18        80        54        78        7        56        72        73        52        39        27        26        1        13        48        30        91        15        78        69        12        46        6        70        52        64        47        10000000        57        83        52        74        73        77        41        8        45        82        66        23        68        39        72        83        66        17        63        65        31        33        33        55        72        19        52        14        26        43        93        74        75        57        85        45        85        62        95        77        61        72        50        66        71        72        94        30        60        81        31        42        15        98        79        68        15        53        64        58        37        83        73        41        97        11        85        57        72        20        30        72        36         
 69        128        105        97        62        45        80        97        104        37        83        43        57        68        25        69        134        65        73        66        66        32        52        86        104        93        63        57        10000000        86        75        115        92        85        29        51        86        117        102        77        55        97        115        111        93        74        89        52        74        67        63        110        99        74        89        48        53        15        91        115        76        63        124        100        83        56        94        114        59        66        89        67        100        119        137        68        70        91        27        90        72        93        125        114        72        28        111        62        59        93        109        54        94        47        78        28        118        60        85        95        56         
 100        85        79        23        90        41        11        32        81        54        103        62        84        93        62        57        78        98        15        20        78        56        83        20        82        38        36        83        86        10000000        33        63        22        7        61        86        56        56        51        78        33        101        69        42        36        84        34        35        61        53        51        92        35        97        50        89        57        80        11        65        10        27        66        117        8        30        12        58        28        20        53        20        40        77        82        57        23        10        84        69        90        17        78        73        87        58        73        26        46        10        53        43        16        79        16        59        73        64        81        30        47         
 68        62        49        26        59        36        22        23        50        37        70        37        53        62        51        24        62        67        35        29        46        43        54        17        51        18        11        52        75        33        10000000        43        21        27        46        57        25        43        30        45        39        68        47        37        19        51        14        38        28        21        20        61        24        65        21        62        29        64        44        45        29        18        51        84        39        31        45        41        27        32        23        24        26        53        66        24        13        29        62        37        58        50        57        48        54        49        47        20        18        31        36        21        49        51        42        52        50        33        48        22        20         
 83        22        30        40        78        80        55        31        33        78        76        73        75        77        92        48        19        84        73        70        63        85        79        44        34        27        54        74        115        63        43        10000000        41        57        86        82        30        13        13        54        81        64        8        25        28        62        32        81        44        48        52        43        28        76        25        87        62        102        72        2        65        61        11        83        71        74        72        6        69        72        26        65        23        15        23        48        54        53        97        34        70        79        15        13        66        92        16        63        56        54        10        62        77        79        77        95        12        59        50        33        59         
 89        63        59        5        80        49        16        10        61        55        89        58        74        82        67        44        57        88        33        32        66        60        75        6        62        17        30        73        92        22        21        41        10000000        16        64        78        38        34        30        64        45        84        47        22        14        71        13        46        46        41        41        72        13        85        31        83        50        82        32        43        25        29        44        102        30        40        32        36        35        34        33        28        18        55        61        44        21        13        83        51        78        38        56        51        74        64        51        30        39        14        31        40        36        72        36        67        51        54        65        8        41         
 94        79        73        18        84        40        5        26        74        51        97        57        78        88        60        51        73        92        17        20        72        54        78        13        75        31        30        77        85        7        27        57        16        10000000        58        81        50        50        45        72        33        94        63        38        29        78        27        34        54        47        45        85        29        91        43        84        52        77        17        59        10        23        60        111        14        29        18        52        26        21        46        18        34        70        77        50        18        7        80        63        84        24        72        66        81        56        66        23        41        9        47        38        22        74        20        58        67        58        75        24        42         
 58        101        80        69        48        21        53        68        79        9        69        18        42        54        7        42        105        54        50        41        46        6        38        58        79        64        34        41        29        61        46        86        64        58        10000000        39        58        88        74        55        34        78        87        82        65        55        60        30        48        40        35        86        70        60        61        39        27        19        68        87        51        36        96        86        60        32        71        86        33        43        61        41        72        91        109        42        42        65        25        64        56        71        97        87        54        12        84        35        30        66        80        25        71        31        56        16        90        36        63        67        28         
 19        88        62        83        10        56        75        78        60        38        32        25        7        17        45        36        99        15        80        70        19        44        3        74        60        70        50        8        51        86        57        82        78        81        39        10000000        52        89        73        30        69        46        79        89        72        25        68        65        38        38        37        62        78        23        59        6        29        37        95        81        77        60        93        49        88        63        97        84        62        73        57        68        77        80        102        36        63        85        25        49        21        100        87        76        22        51        72        61        40        87        80        43        100        8        87        54        80        25        38        77        39         
 56        43        25        41        49        57        46        33        25        50        53        43        46        49        65        17        49        56        60        54        34        58        49        37        26        23        31        45        86        56        25        30        38        50        58        52        10000000        37        21        28        62        46        30        40        26        36        25        60        14        18        23        36        31        50        9        57        33        72        67        31        53        42        41        64        63        54        68        32        50        57        6        49        28        33        52        18        38        50        66        13        44        73        39        29        39        66        26        44        29        52        28        36        72        49        66        69        32        28        27        33        31         
 93        33        42        32        86        79        50        25        45        80        87        77        83        86        94        53        22        93        67        66        71        86        86        39        47        25        54        82        117        56        43        13        34        50        88        89        37        10000000        16        64        78        76        21        14        25        72        30        78        51        53        56        55        22        86        30        95        67        105        64        15        59        59        10        95        64        72        63        7        67        68        32        61        18        28        26        54        52        45        102        44        80        70        25        26        76        93        29        61        59        46        9        63        68        86        71        95        24        65        61        27        61         
 77        34        32        30        70        66        43        20        34        65        72        61        67        70        79        37        32        77        60        57        55        72        70        32        35        14        41        66        102        51        30        13        30        45        74        73        21        16        10000000        48        68        63        18        21        16        56        19        67        35        37        40        45        17        70        14        78        51        90        61        15        52        48        22        81        59        61        61        12        56        59        15        52        13        25        36        37        41        42        85        29        64        68        27        21        60        79        22        50        43        44        7        49        66        69        65        82        22        48        46        22        46         
 29        58        32        68        24        64        67        60        29        50        25        37        23        22        62        21        70        30        78        69        11        58        28        61        29        51        45        23        77        78        45        54        64        72        55        30        28        64        48        10000000        73        24        51        68        53        8        51        71        18        26        30        33        59        22        36        36        30        62        89        54        73        57        66        39        83        66        91        58        63        73        34        65        56        50        72        22        56        74        52        20        16        95        57        47        12        66        43        59        36        76        55        44        94        32        85        70        51        20        8        60        37         
 86        101        87        50        75        13        30        54        87        31        94        43        69        81        33        53        99        83        18        13        68        28        67        40        88        55        31        68        55        33        39        81        45        33        34        69        62        78        68        73        10000000        98        85        68        54        76        49        4        59        49        44        97        57        86        60        70        44        51        36        83        23        20        88        110        28        8        39        78        12        13        62        17        60        91        103        52        27        40        59        73        80        38        95        87        77        27        85        18        37        41        72        30        39        61        23        27        89        54        79        52        36         
 33        58        34        87        36        88        90        79        31        74        18        60        39        30        85        45        75        36        102        93        32        81        45        83        30        69        69        39        97        101        68        64        84        94        78        46        46        76        63        24        98        10000000        58        83        72        23        71        95        40        50        54        25        77        24        54        50        54        82        112        63        96        81        74        19        106        90        113        69        87        97        51        89        73        54        76        46        80        95        70        34        24        118        61        52        24        89        49        83        61        98        68        68        117        50        109        93        56        44        20        79        62         
 79        16        24        47        75        83        61        37        26        79        71        73        73        73        94        47        20        80        78        74        60        87        76        50        28        32        57        72        115        69        47        8        47        63        87        79        30        21        18        51        85        58        10000000        33        34        58        37        84        42        48        52        35        35        72        27        85        62        102        79        6        70        65        16        77        77        78        78        14        73        77        26        69        29        8        22        48        59        60        96        30        66        85        10        6        63        94        9        67        57        61        17        64        83        78        83        97        4        57        45        39        60         
 96        47        52        19        88        70        38        14        54        74        92        73        84        89        87        53        36        95        55        55        73        80        86        28        56        19        48        83        111        42        37        25        22        38        82        89        40        14        21        68        68        83        33        10000000        18        76        23        68        52        51        53        65        13        90        31        94        64        100        50        27        47        50        24        102        51        62        49        19        57        57        34        51        12        40        40        53        42        32        98        50        83        56        39        38        79        85        40        52        54        33        16        57        54        85        58        87        37        64        66        16        57         
 80        50        45        16        72        54        27        7        47        56        78        55        67        73        69        36        46        79        44        41        57        62        69        16        48        3        30        66        93        36        19        28        14        29        65        72        26        25        16        53        54        72        34        18        10000000        61        5        53        36        34        35        59        6        75        18        77        46        82        46        30        36        34        34        90        43        47        46        25        42        44        21        37        7        41        50        36        27        27        80        38        68        52        43        37        64        68        37        36        36        28        19        39        50        67        49        71        38        47        53        7        39         
 21        65        38        75        17        66        73        67        36        51        18        37        18        14        62        27        78        22        83        74        9        58        23        68        36        58        50        17        74        84        51        62        71        78        55        25        36        72        56        8        76        23        58        76        61        10000000        58        73        25        31        34        38        66        14        44        30        32        59        95        62        78        61        74        34        88        69        96        66        67        77        42        70        64        58        80        28        62        80        48        28        8        100        65        54        4        66        50        63        40        83        63        47        100        28        90        70        59        22        14        67        41         
 77        53        46        17        68        49        24        10        47        51        76        51        64        70        64        33        50        76        41        37        54        57        65        14        49        5        25        63        89        34        14        32        13        27        60        68        25        30        19        51        49        71        37        23        5        58        10000000        49        34        30        31        59        10        72        17        73        41        77        44        34        33        30        39        89        41        42        44        29        38        40        20        33        12        44        54        33        22        26        76        38        66        50        47        40        61        63        39        31        31        27        23        34        49        63        46        66        41        43        51        9        34         
 83        100        85        50        72        9        31        54        85        27        90        40        66        78        29        51        99        80        21        15        65        25        63        40        86        54        29        65        52        35        38        81        46        34        30        65        60        78        67        71        4        95        84        68        53        73        49        10000000        57        47        42        95        57        83        58        67        41        48        39        82        25        19        87        107        31        7        42        78        11        15        60        18        60        90        103        50        26        42        55        71        77        41        94        86        74        24        84        17        35        43        72        27        42        57        26        24        88        51        76        52        33         
 44        54        31        50        36        51        50        43        30        41        43        32        32        37        55        6        62        43        61        53        21        49        35        44        31        34        29        31        74        61        28        44        46        54        48        38        14        51        35        18        59        40        42        52        36        25        34        57        10000000        10        15        39        42        39        21        44        21        60        72        44        55        41        55        57        66        51        73        46        48        56        19        49        40        45        65        7        39        56        53        16        32        77        51        40        28        57        37        43        22        58        42        30        77        35        68        61        44        15        21        43        24         
 48        61        41        46        39        41        42        40        40        32        50        25        34        41        47        4        67        46        52        44        25        40        35        38        41        32        19        33        67        53        21        48        41        47        40        38        18        53        37        26        49        50        48        51        34        31        30        47        10        10000000        5        49        40        44        23        43        14        54        64        48        47        31        58        65        57        41        65        49        38        47        22        39        39        51        70        4        30        50        49        25        37        69        57        47        34        48        44        33        12        52        44        20        69        33        59        52        50        13        30        39        14         
 49        66        46        46        39        36        40        41        45        27        52        21        34        43        42        9        71        47        49        40        27        35        35        37        46        34        16        33        63        51        20        52        41        45        35        37        23        56        40        30        44        54        52        53        35        34        31        42        15        5        10000000        54        41        46        26        42        11        50        61        52        44        27        62        68        54        37        63        52        34        43        26        36        41        56        74        8        28        48        46        31        40        67        62        52        36        43        49        29        7        51        47        15        66        32        56        47        55        13        34        40        9         
 55        33        13        74        54        90        82        64        12        80        42        68        55        50        93        45        50        57        97        90        44        88        61        72        10        56        66        55        110        92        61        43        72        85        86        62        36        55        45        33        97        25        35        65        59        38        59        95        39        49        54        10000000        62        46        42        68        59        95        103        41        89        78        52        43        99        89        103        49        86        93        39        85        57        30        51        46        74        85        85        24        43        109        36        30        41        96        26        80        61        86        49        69        108        64        103        100        33        50        25        65        63         
 86        50        49        13        78        58        28        3        50        61        84        61        73        79        74        42        44        85        46        44        63        67        75        17        52        8        35        72        99        35        24        28        13        29        70        78        31        22        17        59        57        77        35        13        6        66        10        57        42        40        41        62        10000000        81        23        83        52        88        44        30        37        38        32        95        43        50        44        23        46        46        26        39        5        42        48        42        30        25        86        43        74        51        43        39        70        73        39        40        42        26        18        45        49        73        49        75        39        53        58        5        44         
 9        77        50        89        13        74        86        82        47        58        9        44        18        6        67        40        91        11        94        85        19        65        23        81        47        72        62        19        74        97        65        76        85        91        60        23        50        86        70        22        86        24        72        90        75        14        72        83        39        44        46        46        81        10000000        58        27        42        60        107        75        90        73        87        26        101        79        109        80        77        88        56        81        78        70        93        41        74        94        47        42        7        113        77        67        11        72        63        74        52        96        77        57        112        29        101        76        71        33        26        81        52         
 64        42        29        33        57        56        40        24        30        52        61        47        53        57        67        23        45        64        56        50        42        60        56        30        32        15        30        52        89        50        21        25        31        43        61        59        9        30        14        36        60        54        27        31        18        44        17        58        21        23        26        42        23        58        10000000        64        37        76        61        26        48        39        36        72        57        52        61        26        48        53        3        45        20        32        48        23        34        43        72        21        52        67        37        28        48        67        25        41        30        45        21        37        66        55        61        70        30        34        35        25        33         
 21        94        68        88        14        57        79        83        65        40        36        28        13        21        44        41        105        17        82        73        25        44        9        78        65        75        54        14        48        89        62        87        83        84        39        6        57        95        78        36        70        50        85        94        77        30        73        67        44        43        42        68        83        27        64        10000000        33        34        98        87        81        63        98        52        91        65        101        90        65        75        63        71        82        86        107        41        66        89        21        55        26        103        93        82        27        50        78        64        44        91        85        47        103        10        89        54        86        30        44        82        43         
 43        75        53        55        33        34        47        51        52        20        49        11        27        37        34        16        81        41        52        43        24        28        26        46        52        44        22        26        53        57        29        62        50        52        27        29        33        67        51        30        44        54        62        64        46        32        41        41        21        14        11        59        52        42        37        33        10000000        40        67        63        49        31        72        66        60        37        69        63        35        46        36        40        52        65        84        15        34        56        35        38        36        72        71        61        33        36        58        33        11        59        58        16        72        22        59        40        64        10        37        50        10         
 55        114        91        87        47        39        73        87        89        27        69        29        43        54        19        55        121        51        68        60        51        24        37        77        89        81        53        43        15        80        64        102        82        77        19        37        72        105        90        62        51        82        102        100        82        59        77        48        60        54        50        95        88        60        76        34        40        10000000        86        102        70        55        112        86        78        50        89        102        52        61        76        60        89        105        124        54        61        84        13        76        58        89        111        100        57        25        97        54        47        86        97        43        90        32        74        26        104        46        70        85        44         
 110        95        90        32        100        47        22        41        91        62        113        71        93        104        68        68        86        108        18        26        88        62        93        30        93        48        46        93        91        11        44        72        32        17        68        95        67        64        61        89        36        112        79        50        46        95        44        39        72        64        61        103        44        107        61        98        67        86        10000000        74        18        36        74        128        8        36        3        67        35        25        64        28        49        86        90        67        33        19        91        80        101        6        87        83        97        63        83        35        56        18        62        52        5        88        14        63        83        74        92        40        57         
 83        20        28        42        77        81        57        33        31        79        75        73        75        76        93        48        18        83        75        71        63        86        79        46        33        29        55        74        115        65        45        2        43        59        87        81        31        15        15        54        83        63        6        27        30        62        34        82        44        48        52        41        30        75        26        87        63        102        74        10000000        66        63        12        81        73        75        74        9        71        74        26        66        25        13        22        48        56        55        97        33        70        81        13        11        66        93        14        65        57        56        12        63        79        79        79        96        9        59        49        35        59         
 92        86        77        28        82        31        9        34        78        45        96        53        76        86        52        51        81        90        8        10        71        46        75        20        79        38        28        75        76        10        29        65        25        10        51        77        53        59        52        73        23        96        70        47        36        78        33        25        55        47        44        89        37        90        48        81        49        70        18        66        10000000        18        69        112        11        20        20        60        18        11        50        10        42        77        85        50        16        17        74        66        83        23        79        73        80        48        72        17        38        18        55        34        22        70        13        49        74        57        76        32        39         
 75        81        67        34        64        20        18        36        67        28        80        35        58        69        38        36        80        72        21        13        54        31        57        23        68        35        12        57        63        27        18        61        29        23        36        60        42        59        48        57        20        81        65        50        34        61        30        19        41        31        27        78        38        73        39        63        31        55        36        63        18        10000000        68        95        28        13        38        59        8        16        41        8        41        71        84        35        8        29        57        54        67        40        75        67        63        35        65        2        21        31        53        16        40        52        28        37        69        40        61        34        21         
 95        25        40        42        89        87        60        34        43        87        87        83        86        88        101        58        12        95        77        75        74        94        90        49        44        33        62        85        124        66        51        11        44        60        96        93        41        10        22        66        88        74        16        24        34        74        39        87        55        58        62        52        32        87        36        98        72        112        74        12        69        68        10000000        93        74        81        73        10        76        78        36        71        27        22        16        59        61        55        107        45        81        80        18        22        78        101        26        70        65        56        16        71        78        90        81        104        19        69        61        37        68         
 31        76        53        105        39        99        106        97        50        83        17        70        45        32        93        60        93        35        117        108        42        91        49        100        49        87        84        45        100        117        84        83        102        111        86        49        64        95        81        39        110        19        77        102        90        34        89        107        57        65        68        43        95        26        72        52        66        86        128        81        112        95        93        10000000        122        103        129        88        101        111        70        104        92        73        94        61        95        113        73        52        31        134        79        71        33        98        67        97        74        115        87        81        133        56        124        102        75        56        37        97        75         
 103        93        86        32        92        39        17        40        87        54        107        63        86        97        60        62        86        100        10        18        81        54        85        27        89        45        39        85        83        8        39        71        30        14        60        88        63        64        59        83        28        106        77        51        43        88        41        31        66        57        54        99        43        101        57        91        60        78        8        73        11        28        74        122        10000000        28        11        66        27        17        59        20        48        84        90        61        27        19        83        76        94        12        86        81        91        55        80        27        49        18        61        44        12        81        8        55        81        67        86        38        49         
 80        93        79        44        69        11        26        48        79        26        87        38        63        75        32        46        92        77        18        10        61        26        61        34        80        47        23        62        56        30        31        74        40        29        32        63        54        72        61        66        8        90        78        62        47        69        42        7        51        41        37        89        50        79        52        65        37        50        36        75        20        13        81        103        28        10000000        39        71        4        11        54        12        54        84        96        45        20        36        56        65        73        39        88        79        70        27        77        11        30        38        65        22        40        55        25        28        81        47        71        45        29         
 112        94        90        31        102        50        23        41        92        65        115        73        96        105        71        69        85        110        21        29        90        65        95        31        93        48        48        95        94        12        45        72        32        18        71        97        68        63        61        91        39        113        78        49        46        96        44        42        73        65        63        103        44        109        61        101        69        89        3        74        20        38        73        129        11        39        10000000        66        38        28        64        30        49        86        89        69        35        19        94        81        102        7        87        82        99        66        83        37        58        17        62        54        5        90        17        66        83        76        93        39        59         
 87        28        36        35        81        78        51        26        38        77        81        73        78        80        91        49        21        87        69        66        66        84        81        40        40        24        52        77        114        58        41        6        36        52        86        84        32        7        12        58        78        69        14        19        25        66        29        78        46        49        52        49        23        80        26        90        63        102        67        9        60        59        10        88        66        71        66        10000000        67        69        27        61        18        22        25        49        51        48        98        38        74        73        21        20        70        91        22        60        55        49        6        61        71        81        73        94        18        60        54        28        58         
 78        89        75        40        68        14        22        43        75        27        85        37        62        73        34        42        88        76        18        9        59        28        60        30        76        43        19        61        59        28        27        69        35        26        33        62        50        67        56        63        12        87        73        57        42        67        38        11        48        38        34        86        46        77        48        65        35        52        35        71        18        8        76        101        27        4        38        67        10000000        11        49        8        49        79        92        41        15        33        57        61        71        39        83        75        68        30        73        6        27        34        61        20        39        55        25        32        77        45        68        41        26         
 89        93        82        38        79        22        19        43        82        37        95        48        72        83        43        51        90        86        7        3        69        37        71        29        83        45        28        72        66        20        32        72        34        21        43        73        57        68        59        73        13        97        77        57        44        77        40        15        56        47        43        93        46        88        53        75        46        61        25        74        11        16        78        111        17        11        28        69        11        10000000        55        8        50        84        94        51        19        28        67        69        82        28        87        79        78        38        78        14        37        29        63        30        29        65        14        39        81        55        77        41        36         
 62        41        27        36        55        57        42        27        28        53        59        47        51        55        67        22        45        62        58        52        40        60        54        33        29        18        31        50        89        53        23        26        33        46        61        57        6        32        15        34        62        51        26        34        21        42        20        60        19        22        26        39        26        56        3        63        36        76        64        26        50        41        36        70        59        54        64        27        49        55        10000000        47        22        31        48        22        36        45        71        18        50        70        36        26        46        68        24        43        31        47        23        38        68        54        64        71        29        33        33        28        34         
 83        85        74        33        73        22        14        37        74        34        88        43        66        77        43        44        82        81        13        5        62        36        65        23        75        38        20        66        67        20        24        65        28        18        41        68        49        61        52        65        17        89        69        51        37        70        33        18        49        39        36        85        39        81        45        71        40        60        28        66        10        8        71        104        20        12        30        61        8        8        47        10000000        43        76        87        43        11        25        64        61        75        32        79        72        72        39        70        7        30        26        56        24        32        60        20        40        73        48        69        35        30         
 84        45        44        18        76        61        33        8        46        63        81        62        72        77        76        41        39        84        50        48        61        69        74        22        47        8        37        71        100        40        26        23        18        34        72        77        28        18        13        56        60        73        29        12        7        64        12        60        40        39        41        57        5        78        20        82        52        89        49        25        42        41        27        92        48        54        49        18        49        50        22        43        10000000        37        43        41        34        30        87        39        72        56        38        34        68        75        34        43        43        32        13        46        54        73        54        78        34        52        55        10        45         
 78        10        20        55        74        88        68        45        23        83        68        76        73        72        98        50        21        79        85        81        60        91        77        57        24        39        62        72        119        77        53        15        55        70        91        80        33        28        25        50        91        54        8        40        41        58        44        90        45        51        56        30        42        70        32        86        65        105        86        13        77        71        22        73        84        84        86        22        79        84        31        76        37        10000000        23        50        65        67        98        31        65        93        7        4        62        98        8        73        61        68        25        68        91        79        90        102        4        59        44        47        64         
 101        18        43        59        97        102        76        51        46        101        91        95        95        94        115        69        4        102        93        91        82        108        99        65        46        49        77        94        137        82        66        23        61        77        109        102        52        26        36        72        103        76        22        40        50        80        54        103        65        70        74        51        48        93        48        107        84        124        90        22        85        84        16        94        90        96        89        25        92        94        48        87        43        23        10000000        70        76        72        118        52        88        96        15        26        84        115        30        85        79        72        31        85        94        100        97        118        22        80        66        53        81         
 45        60        38        48        36        44        45        42        37        34        46        25        31        38        48        1        67        44        56        47        22        42        33        41        38        34        23        30        68        57        24        48        44        50        42        36        18        54        37        22        52        46        48        53        36        28        33        50        7        4        8        46        42        41        23        41        15        54        67        48        50        35        59        61        61        45        69        49        41        51        22        43        41        50        70        10000000        34        53        49        23        34        73        57        46        30        50        43        37        15        55        45        23        72        32        63        54        49        11        27        42        17         
 77        75        63        26        66        28        13        28        63        35        80        40        60        70        46        35        72        74        22        16        55        39        60        16        64        28        13        60        70        23        13        54        21        18        42        63        38        52        41        56        27        80        59        42        27        62        22        26        39        30        28        74        30        74        34        66        34        61        33        56        16        8        61        95        27        20        35        51        15        19        36        11        34        65        76        34        10000000        23        63        50        67        39        68        61        64        43        59        9        23        25        46        20        38        56        29        45        62        41        60        26        24         
 97        75        72        13        88        47        11        22        73        57        99        63        82        91        67        54        68        96        24        27        75        60        82        13        74        29        35        81        91        10        29        53        13        7        65        85        50        45        42        74        40        95        60        32        27        80        26        42        56        50        48        85        25        94        43        89        56        84        19        55        17        29        55        113        19        36        19        48        33        28        45        25        30        67        72        53        23        10000000        86        63        87        25        68        64        83        63        64        29        45        2        43        43        24        79        26        65        64        62        76        20        46         
 42        107        82        88        35        46        75        85        80        30        56        25        31        41        28        49        115        38        74        65        41        30        25        77        80        79        52        31        27        84        62        97        83        80        25        25        66        102        85        52        59        70        96        98        80        48        76        55        53        49        46        85        86        47        72        21        35        13        91        97        74        57        107        73        83        56        94        98        57        67        71        64        87        98        118        49        63        86        10000000        68        46        95        104        94        46        34        90        57        44        88        93        43        95        21        80        37        97        38        60        84        42         
 49        39        15        54        44        66        59        45        14        57        43        48        42        43        71        22        50        50        73        66        30        65        47        50        15        35        42        42        90        69        37        34        51        63        64        49        13        44        29        20        73        34        30        50        38        28        38        71        16        25        31        24        43        42        21        55        38        76        80        33        66        54        45        52        76        65        81        38        61        69        18        61        39        31        52        23        50        63        68        10000000        36        86        38        27        32        73        23        56        37        65        36        45        85        48        79        77        31        30        16        45        40         
 13        72        46        82        12        69        79        75        43        53        13        39        15        7        63        34        86        14        88        79        13        60        20        75        42        66        55        15        72        90        58        70        78        84        56        21        44        80        64        16        80        24        66        83        68        8        66        77        32        37        40        43        74        7        52        26        36        58        101        70        83        67        81        31        94        73        102        74        71        82        50        75        72        65        88        34        67        87        46        36        10000000        106        72        62        4        67        58        68        45        89        71        51        106        26        95        71        66        27        21        75        45         
 115        101        96        38        105        50        28        48        98        65        119        75        98        109        71        74        92        113        21        30        94        65        97        37        99        54        51        98        93        17        50        79        38        24        71        100        73        70        68        95        38        118        85        56        52        100        50        41        77        69        67        109        51        113        67        103        72        89        6        81        23        40        80        134        12        39        7        73        39        28        70        32        56        93        96        73        39        25        95        86        106        10000000        94        89        103        65        89        39        61        24        68        57        2        93        15        65        89        80        98        46        62         
 85        8        27        55        82        93        70        46        30        89        76        82        80        79        103        56        14        87        88        84        68        97        84        59        31        41        67        79        125        78        57        15        56        72        97        87        39        25        27        57        95        61        10        39        43        65        47        94        51        57        62        36        43        77        37        93        71        111        87        13        79        75        18        79        86        88        87        21        83        87        36        79        38        7        15        57        68        68        104        38        72        94        10000000        11        69        104        15        77        67        69        25        74        92        86        92        107        7        66        51        48        70         
 75        14        18        51        71        84        64        41        21        79        66        72        69        69        93        45        24        76        81        77        57        87        73        53        22        35        58        68        114        73        48        13        51        66        87        76        29        26        21        47        87        52        6        38        37        54        40        86        40        47        52        30        39        67        28        82        61        100        83        11        73        67        22        71        81        79        82        20        75        79        26        72        34        4        26        46        61        64        94        27        62        89        11        10000000        59        94        4        69        57        65        22        64        87        75        86        98        4        55        41        43        60         
 17        69        42        78        13        66        75        71        40        51        16        37        15        10        61        30        82        18        84        75        9        58        21        71        39        62        52        15        72        87        54        66        74        81        54        22        39        76        60        12        77        24        63        79        64        4        61        74        28        34        36        41        70        11        48        27        33        57        97        66        80        63        78        33        91        70        99        70        68        78        46        72        68        62        84        30        64        83        46        32        4        103        69        59        10000000        66        54        65        42        85        67        48        102        26        91        70        63        24        18        71        42         
 69        108        89        69        59        16        52        71        88        16        81        29        53        66        6        51        111        66        45        37        57        8        49        59        88        68        38        53        28        58        49        92        64        56        12        51        66        93        79        66        27        89        94        85        68        66        63        24        57        48        43        96        73        72        67        50        36        25        63        93        48        35        101        98        55        27        66        91        30        38        68        39        75        98        115        50        43        63        34        73        67        65        104        94        66        10000000        91        34        37        65        85        30        66        43        50        4        97        46        73        69        34         
 71        17        14        52        67        81        63        42        17        76        62        68        65        65        90        42        28        72        80        75        53        84        69        53        18        35        55        64        111        73        47        16        51        66        84        72        26        29        22        43        85        49        9        40        37        50        39        84        37        44        49        26        39        63        25        78        58        97        83        14        72        65        26        67        80        77        83        22        73        78        24        70        34        8        30        43        59        64        90        23        58        89        15        4        54        91        10000000        67        54        65        23        61        87        71        85        95        8        52        37        43        57         
 76        83        69        35        65        19        18        37        69        28        81        36        59        70        38        38        81        73        20        11        55        31        58        24        70        37        14        58        62        26        20        63        30        23        35        61        44        61        50        59        18        83        67        52        36        63        31        17        43        33        29        80        40        74        41        64        33        54        35        65        17        2        70        97        27        11        37        60        6        14        43        7        43        73        85        37        9        29        57        56        68        39        77        69        65        34        67        10000000        23        31        55        17        39        53        27        36        71        41        63        35        23         
 54        71        52        44        44        29        35        41        52        22        58        19        38        48        36        16        75        52        43        34        33        30        37        34        52        35        10        37        59        46        18        56        39        41        30        40        29        59        43        36        37        61        57        54        36        40        31        35        22        12        7        61        42        52        30        44        11        47        56        57        38        21        65        74        49        30        58        55        27        37        31        30        43        61        79        15        23        45        44        37        45        61        67        57        42        37        54        23        10000000        47        50        8        61        34        50        41        60        18        41        40        3         
 100        77        73        14        90        48        13        24        75        59        101        65        84        93        69        56        68        98        25        28        77        62        84        15        76        31        37        83        93        10        31        54        14        9        66        87        52        46        44        76        41        98        61        33        28        83        27        43        58        52        51        86        26        96        45        91        59        86        18        56        18        31        56        115        18        38        17        49        34        29        47        26        32        68        72        55        25        2        88        65        89        24        69        65        85        65        65        31        47        10000000        44        45        22        81        26        66        65        64        78        22        49         
 84        32        36        30        77        72        46        21        38        72        78        68        74        77        86        44        27        84        63        60        62        78        77        35        40        18        47        73        109        53        36        10        31        47        80        80        28        9        7        55        72        68        17        16        19        63        23        72        42        44        47        49        18        77        21        85        58        97        62        12        55        53        16        87        61        65        62        6        61        63        23        56        13        25        31        45        46        43        93        36        71        68        25        22        67        85        23        55        50        44        10000000        55        67        77        67        88        21        56        52        23        53         
 59        78        60        45        48        21        33        43        60        17        65        19        42        53        30        24        81        56        37        28        39        23        41        34        60        39        9        41        54        43        21        62        40        38        25        43        36        63        49        44        30        68        64        57        39        47        34        27        30        20        15        69        45        57        37        47        16        43        52        63        34        16        71        81        44        22        54        61        20        30        38        24        46        68        85        23        20        43        43        45        51        57        74        64        48        30        61        17        8        45        55        10000000        56        36        44        34        67        25        49        42        6         
 115        99        95        36        104        50        27        46        96        66        118        75        98        108        71        73        90        112        21        30        93        66        97        35        98        53        51        97        94        16        49        77        36        22        71        100        72        68        66        94        39        117        83        54        50        100        49        42        77        69        66        108        49        112        66        103        72        90        5        79        22        40        78        133        12        40        5        71        39        29        68        32        54        91        94        72        38        24        95        85        106        2        92        87        102        66        87        39        61        22        67        56        10000000        93        16        66        87        79        97        44        61         
 26        87        62        77        16        48        69        73        60        31        38        18        11        23        38        32        97        23        72        63        20        36        6        68        60        65        44        11        47        79        51        79        72        74        31        8        49        86        69        32        61        50        78        85        67        28        63        57        35        33        32        64        73        29        55        10        22        32        88        79        70        52        90        56        81        55        90        81        55        65        54        60        73        79        100        32        56        79        21        48        26        93        86        75        26        43        71        53        34        81        77        36        93        10000000        79        47        79        21        40        72        32         
 103        99        91        39        92        35        22        47        91        51        108        62        86        97        56        64        93        100        7        16        82        50        84        33        93        51        40        85        78        16        42        77        36        20        56        87        66        71        65        85        23        109        83        58        49        90        46        26        68        59        56        103        49        101        61        89        59        74        14        79        13        28        81        124        8        25        17        73        25        14        64        20        54        90        97        63        29        26        80        79        95        15        92        86        91        50        85        27        50        26        67        44        16        79        10000000        50        87        68        89        44        49         
 73        112        92        71        63        18        54        73        91        20        84        33        57        70        9        55        114        69        45        38        61        12        53        61        92        71        41        57        28        59        52        95        67        58        16        54        69        95        82        70        27        93        97        87        71        70        66        24        61        52        47        100        75        76        70        54        40        26        63        96        49        37        104        102        55        28        66        94        32        39        71        40        78        102        118        54        45        65        37        77        71        65        107        98        70        4        95        36        41        66        88        34        66        47        50        10000000        100        50        77        71        38         
 79        12        22        51        75        86        65        42        25        82        70        75        73        73        96        49        19        80        82        78        61        90        77        54        26        36        60        72        118        73        50        12        51        67        90        80        32        24        22        51        89        56        4        37        38        59        41        88        44        50        55        33        39        71        30        86        64        104        83        9        74        69        19        75        81        81        83        18        77        81        29        73        34        4        22        49        62        64        97        31        66        89        7        4        63        97        8        71        60        65        21        67        87        79        87        100        10000000        59        45        43        63         
 36        69        45        58        26        44        53        53        43        30        40        18        21        29        43        11        77        34        61        52        14        38        22        50        44        45        28        20        60        64        33        59        54        58        36        25        28        65        48        20        54        44        57        64        47        22        43        51        15        13        13        50        53        33        34        30        10        46        74        59        57        40        69        56        67        47        76        60        45        55        33        48        52        59        80        11        41        62        38        30        27        80        66        55        24        46        52        41        18        64        56        25        79        21        68        50        59        10000000        27        52        19         
 34        51        25        68        31        70        70        60        22        57        26        45        31        28        70        26        65        35        82        74        19        65        36        63        22        50        49        30        85        81        48        50        65        75        63        38        27        61        46        8        79        20        45        66        53        14        51        76        21        30        34        25        58        26        35        44        37        70        92        49        76        61        61        37        86        71        93        54        68        77        33        69        55        44        66        27        60        76        60        16        21        98        51        41        18        73        37        63        41        78        52        49        97        40        89        77        45        27        10000000        60        43         
 86        55        52        9        78        54        23        2        54        58        85        59        73        79        71        42        49        85        41        39        63        64        74        12        55        10        32        72        95        30        22        33        8        24        67        77        33        27        22        60        52        79        39        16        7        67        9        52        43        39        40        65        5        81        25        82        50        85        40        35        32        34        37        97        38        45        39        28        41        41        28        35        10        47        53        42        26        20        84        45        75        46        48        43        71        69        43        35        40        22        23        42        44        72        44        71        43        52        60        10000000        42         
 53        74        55        46        43        27        36        43        54        19        59        17        37        47        34        18        78        51        42        33        33        27        36        36        55        38        11        36        56        47        20        59        41        42        28        39        31        61        46        37        36        62        60        57        39        41        34        33        24        14        9        63        44        52        33        43        10        44        57        59        39        21        68        75        49        29        59        58        26        36        34        30        45        64        81        17        24        46        42        40        45        62        70        60        42        34        57        23        3        49        53        6        61        32        49        38        63        19        43        42        10000000         
 DEMAND_SECTION: 
 0   561   0 
 1   1   0 
 2   4   2 
 3   8   11 
 4   3   11 
 5   19   0 
 6   8   1 
 7   8   5 
 8   3   4 
 9   1   0 
 10   1   0 
 11   5   1 
 12   5   2 
 13   4   5 
 14   3   11 
 15   1   0 
 16   14   3 
 17   9   6 
 18   8   11 
 19   2   6 
 20   11   0 
 21   1   0 
 22   5   2 
 23   1   0 
 24   3   10 
 25   4   0 
 26   4   1 
 27   5   3 
 28   2   2 
 29   1   0 
 30   18   0 
 31   3   0 
 32   4   2 
 33   4   6 
 34   4   12 
 35   11   0 
 36   14   3 
 37   8   4 
 38   5   6 
 39   1   0 
 40   8   0 
 41   1   0 
 42   8   5 
 43   4   5 
 44   4   15 
 45   11   0 
 46   11   2 
 47   6   3 
 48   1   0 
 49   3   8 
 50   6   0 
 51   4   0 
 52   3   1 
 53   6   7 
 54   1   0 
 55   6   0 
 56   12   3 
 57   11   6 
 58   2   2 
 59   1   3 
 60   3   0 
 61   15   3 
 62   2   1 
 63   3   4 
 64   3   11 
 65   1   0 
 66   12   2 
 67   12   7 
 68   5   6 
 69   1   3 
 70   9   0 
 71   8   1 
 72   9   6 
 73   4   5 
 74   1   2 
 75   8   0 
 76   15   3 
 77   9   6 
 78   1   1 
 79   2   6 
 80   10   0 
 81   8   1 
 82   3   2 
 83   1   0 
 84   4   14 
 85   1   0 
 86   1   0 
 87   1   0 
 88   7   10 
 89   4   13 
 90   18   0 
 91   16   3 
 92   2   0 
 93   4   4 
 94   3   10 
 95   1   0 
 96   6   1 
 97   3   2 
 98   3   4 
 99   3   9 
 100   14   0 
 101   0   330 
