NAME: ..//instances//e_vigo//TSP_PD_vrp200_100_4_0.00.tspBeta0.000000 
COMMENT: TSPSimoultaneousPickUpandDelivery_2008 
TYPE: TSPDC 
DIMENSION: 102 
CAPACITY: 711 
EDGE_WEIGHT_TYPE: EXPLICIT 
EDGE_WEIGHT_FORMAT: FULL_MATRIX 
EDGE_WEIGHT_SECTION: 
10000000        50        56        40        31        58        34        69        17        56        76        44        23        54        29        24        39        40        8        60        35        25        53        11        55        43        48        41        42        35        32        10        52        53        39        35        31        56        43        42        59        25        47        26        54        3        33        34        56        43        10        42        10        27        27        40        30        57        35        11        39        32        47        49        20        33        49        40        22        53        66        25        31        59        42        47        64        21        39        36        30        31        40        46        44        51        28        12        63        41        17        30        28        34        59        50        35        53        33        49        50         
 50        10000000        8        90        45        24        81        20        38        52        30        91        68        4        72        74        11        89        44        32        61        71        46        39        55        67        97        91        50        23        39        59        2        66        54        75        36        57        93        92        9        56        17        71        17        47        83        79        36        47        58        33        59        33        51        90        74        50        57        61        59        20        67        28        68        22        19        69        59        55        84        51        38        9        59        80        65        53        61        16        77        80        56        75        8        71        58        39        13        85        37        65        63        21        61        3        31        52        66        53        45         
 56        8        10000000        96        53        18        88        13        46        50        22        98        73        5        80        80        19        96        50        38        69        79        54        45        63        68        104        97        58        25        41        66        8        75        55        82        45        65        99        99        5        59        25        75        23        53        89        83        32        47        64        33        65        41        54        96        82        47        65        68        60        27        75        26        73        26        26        71        67        53        83        54        40        6        67        82        73        57        70        24        82        85        64        77        12        71        66        45        9        93        42        68        71        29        69        7        32        60        74        52        53         
 40        90        96        10000000        60        97        17        109        54        86        115        16        32        94        28        18        79        9        47        95        50        23        81        51        79        61        8        6        67        74        67        31        92        69        66        34        64        79        5        6        99        49        85        31        92        43        10        30        92        74        34        78        32        63        55        7        25        89        54        29        62        71        60        86        28        72        86        55        39        82        80        54        66        99        60        53        84        48        56        76        25        17        61        57        84        69        46        52        103        26        56        46        41        72        81        90        72        78        43        78        78         
 31        45        53        60        10000000        64        45        64        17        77        75        54        54        49        34        51        36        55        25        36        17        37        22        27        24        72        65        57        11        46        53        33        46        25        65        33        9        25        60        59        53        54        31        56        38        29        50        64        69        65        41        58        40        13        55        63        36        77        12        36        67        27        23        60        50        41        32        71        21        76        95        53        52        52        15        78        33        51        16        30        59        58        12        77        44        80        15        33        55        45        38        61        21        25        28        46        50        21        23        72        19         
 58        24        18        97        64        10000000        92        23        52        34        20        102        69        23        85        79        29        99        54        56        79        82        70        49        78        57        105        99        71        23        33        69        25        88        44        89        56        80        101        100        23        53        41        72        41        56        91        78        15        34        63        22        65        51        47        95        87        30        76        69        49        37        87        13        71        26        43        61        74        38        68        48        33        24        79        73        89        52        81        35        79        84        76        67        21        58        74        46        26        98        41        61        79        40        84        22        26        75        82        38        68         
 34        81        88        17        45        92        10000000        101        43        87        109        10        36        86        12        23        70        10        38        81        34        10        66        44        63        66        20        13        51        69        65        24        83        52        68        17        51        63        16        14        91        51        73        37        81        36        8        40        90        75        33        76        30        51        57        23        9        89        38        23        66        62        43        83        31        66        74        62        25        84        88        55        65        90        44        63        68        49        39        66        34        27        45        65        76        76        31        46        94        11        51        51        25        62        64        81        68        62        26        80        63         
 69        20        13        109        64        23        101        10000000        58        57        13        111        85        16        92        93        31        109        63        43        81        91        62        58        71        78        117        110        68        37        52        79        19        84        65        95        56        73        112        111        11        71        34        88        30        66        102        95        38        56        76        42        78        53        65        109        94        53        76        80        70        40        86        34        85        38        35        82        79        61        91        66        51        12        78        93        81        69        81        36        94        98        75        87        25        80        78        58        10        105        55        80        83        40        77        20        43        69        86        60        62         
 17        38        46        54        17        52        43        58        10000000        60        67        53        40        42        34        40        27        52        9        43        28        33        37        10        40        55        60        53        28        31        36        23        40        42        48        37        14        42        56        55        47        38        31        43        39        14        45        51        55        48        27        42        27        10        38        55        36        60        25        26        50        18        38        46        37        27        33        54        21        59        78        36        35        47        31        62        50        34        31        23        47        47        29        60        34        63        22        16        50        47        21        45        26        19        45        38        34        38        30        56        34         
 56        52        50        86        77        34        87        57        60        10000000        52        96        55        53        85        68        50        91        57        83        88        80        90        52        97        30        94        90        86        34        24        65        54        102        21        91        71        99        91        91        55        37        66        56        69        55        84        60        19        13        55        21        58        65        31        82        85        4        86        64        25        54        98        24        59        37        68        36        77        6        35        33        25        56        91        46        108        38        91        55        63        70        89        39        45        27        81        47        59        97        41        41        83        58        103        50        27        94        88        9        88         
 76        30        22        115        75        20        109        13        67        52        10000000        119        89        27        101        98        40        116        70        57        92        99        75        65        84        77        123        117        80        41        53        86        30        97        64        104        67        86        119        118        23        73        46        91        43        73        109        98        33        54        82        42        84        63        67        114        103        48        87        87        70        49        98        33        90        43        47        82        88        57        87        68        53        24        89        93        94        72        92        46        98        103        86        87        33        78        88        64        23        114        60        81        93        51        90        29        45        81        96        57        74         
 44        91        98        16        54        102        10        111        53        96        119        10000000        43        95        21        29        80        7        48        90        42        20        74        53        70        73        14        10        60        79        74        33        93        58        76        23        60        70        12        10        100        59        83        43        90        46        12        44        99        83        41        85        38        60        65        23        18        98        46        33        73        72        49        92        38        76        84        68        34        92        94        63        74        100        51        67        74        57        46        76        39        31        53        71        86        82        39        56        103        12        61        58        34        72        71        91        78        70        34        88        71         
 23        68        73        32        54        69        36        85        40        55        89        43        10000000        72        39        14        57        37        31        82        54        32        76        32        77        30        40        36        64        48        37        23        70        73        34        47        54        78        36        37        77        17        68        3        75        25        31        11        62        43        13        49        14        50        24        28        38        57        55        20        31        52        66        57        5        47        70        25        40        50        52        23        37        76        62        27        86        18        59        56        9        15        61        29        61        39        47        29        80        47        31        15        45        55        81        67        44        75        49        46        72         
 54        4        5        94        49        23        86        16        42        53        27        95        72        10000000        77        78        16        94        48        33        65        76        49        43        58        69        102        95        53        26        42        64        3        70        57        79        40        60        97        96        5        60        20        75        18        51        87        82        36        49        62        35        64        37        54        95        79        50        61        65        61        24        71        29        72        25        21        72        63        56        85        54        41        4        63        83        68        57        65        20        81        84        59        78        11        73        62        43        9        89        41        68        67        25        64        5        33        55        70        55        48         
 29        72        80        28        34        85        12        92        34        85        101        21        39        77        10000000        28        61        22        31        70        22        8        54        37        51        68        32        25        39        63        62        20        74        41        67        7        40        51        28        26        81        51        63        41        70        31        18        45        85        72        32        71        29        40        55        34        3        86        26        21        66        52        32        77        34        60        64        64        14        82        90        53        61        81        32        67        56        48        27        57        40        34        33        68        68        77        19        41        84        13        46        53        13        52        52        73        63        50        14        78        51         
 24        74        80        18        51        79        23        93        40        68        98        29        14        78        28        10000000        63        23        32        83        47        21        73        35        73        44        26        22        60        57        48        18        76        66        48        35        53        74        23        23        83        31        71        14        79        28        17        17        74        56        16        60        15        50        37        16        26        70        49        15        45        56        58        68        9        55        73        39        33        64        65        35        48        83        56        40        80        30        52        61        11        7        56        42        68        53        40        35        87        34        38        29        37        58        76        73        54        71        40        60        70         
 39        11        19        79        36        29        70        31        27        50        40        80        57        16        61        63        10000000        78        32        33        52        60        42        28        50        59        86        79        42        17        33        48        13        59        48        64        27        52        82        81        21        47        16        60        20        36        71        68        37        42        47        30        48        23        43        79        63        48        48        50        52        9        59        28        57        14        18        61        48        52        78        42        31        20        50        72        60        44        52        6        66        69        47        67        8        64        47        28        24        74        27        56        52        11        56        11        25        47        55        49        40         
 40        89        96        9        55        99        10        109        52        91        116        7        37        94        22        23        78        10000000        46        91        44        19        76        51        73        67        10        4        62        76        70        30        91        62        71        26        61        73        6        4        99        54        82        37        90        43        7        38        95        78        37        81        34        60        60        16        19        93        48        29        68        70        53        89        33        73        84        62        34        87        87        58        69        98        54        61        77        52        49        74        32        24        55        64        84        76        41        53        102        17        57        52        35        71        74        89        74        72        36        83        73         
 8        44        50        47        25        54        38        63        9        57        70        48        31        48        31        32        32        46        10000000        52        32        29        46        5        49        48        54        47        35        31        32        16        45        48        42        36        23        50        49        48        53        30        39        34        47        5        39        41        54        44        18        40        18        19        31        48        33        57        30        18        43        25        43        46        28        28        41        46        21        55        71        29        31        52        37        54        58        26        35        29        38        39        35        52        38        56        25        10        56        44        16        37        27        26        53        43        32        46        31        51        42         
 60        32        38        95        36        56        81        43        43        83        57        90        82        33        70        83        33        91        52        10000000        51        72        22        50        31        91        101        93        33        50        65        65        31        46        80        69        31        33        96        95        34        76        17        85        15        57        85        93        68        75        70        62        70        33        73        97        73        81        46        68        84        32        51        60        80        47        15        92        57        85        111        72        64        34        44        102        39        73        48        30        90        90        41        98        38        97        51        54        34        81        56        85        57        28        36        35        57        29        58        82        23         
 35        61        69        50        17        79        34        81        28        88        92        42        54        65        22        47        52        44        32        51        10000000        28        33        36        29        78        54        47        18        59        64        31        62        20        74        19        25        29        50        48        70        60        48        56        55        34        40        62        83        75        43        70        40        28        62        55        25        88        5        34        74        43        12        74        49        55        48        75        14        86        101        60        62        69        10        81        34        56        5        46        57        53        11        80        59        86        7        41        72        31        47        65        9        41        30        62        62        28        8        82        30         
 25        71        79        23        37        82        10        91        33        80        99        20        32        76        8        21        60        19        29        72        28        10000000        58        34        56        61        28        21        44        60        57        15        73        47        61        15        42        57        24        22        81        44        64        33        71        27        13        38        81        66        25        67        22        41        49        27        6        81        31        15        59        52        38        73        26        57        65        57        16        76        83        47        56        80        38        59        62        42        33        56        32        26        38        61        67        70        23        37        84        17        42        46        18        52        58        71        59        55        21        72        55         
 53        46        54        81        22        70        66        62        37        90        75        74        76        49        54        73        42        76        46        22        33        58        10000000        46        9        91        86        79        14        57        69        55        46        24        83        51        22        11        81        80        52        74        29        78        32        51        71        86        79        80        63        70        62        28        73        85        57        89        28        58        85        36        30        70        72        53        28        91        42        91        113        72        67        51        24        99        19        71        29        36        82        80        22        97        49        98        35        52        52        63        55        82        41        32        15        49        63        7        41        88        3         
 11        39        45        51        27        49        44        58        10        52        65        53        32        43        37        35        28        51        5        50        36        34        46        10000000        50        45        58        52        38        26        28        21        41        51        39        41        24        52        54        53        48        28        36        35        44        8        44        43        49        40        20        35        21        19        28        51        38        52        34        22        40        21        47        41        30        23        38        44        26        50        68        26        26        48        40        53        60        24        39        25        40        42        38        50        33        53        29        6        52        50        11        36        32        23        55        39        27        48        36        46        43         
 55        55        63        79        24        78        63        71        40        97        84        70        77        58        51        73        50        73        49        31        29        56        9        50        10000000        96        83        76        13        64        75        56        55        16        88        47        27        2        79        77        61        78        38        80        41        53        69        87        87        87        65        77        64        33        78        84        54        96        25        59        90        43        23        77        73        60        37        94        41        97        118        76        73        60        19        102        11        75        24        44        83        80        18        100        57        103        33        56        61        59        60        85        38        40        6        57        70        3        37        94        10         
 43        67        68        61        72        57        66        78        55        30        77        73        30        69        68        44        59        67        48        91        78        61        91        45        96        10000000        68        65        83        44        27        48        69        96        13        75        69        97        66        66        73        18        74        30        80        44        61        32        45        23        36        36        39        63        18        56        67        34        77        46        8        59        90        45        35        45        76        6        64        25        23        19        28        73        84        16        105        21        82        61        36        44        82        9        59        9        70        40        77        77        36        15        71        63        100        64        36        93        75        22        88         
 48        97        104        8        65        105        20        117        60        94        123        14        40        102        32        26        86        10        54        101        54        28        86        58        83        68        10000000        7        71        82        75        38        99        72        74        36        70        83        4        6        107        57        91        39        99        50        15        37        100        82        42        86        40        69        64        13        29        97        58        36        70        78        63        94        36        80        93        63        44        90        87        62        74        106        64        60        87        56        59        83        33        25        65        64        92        77        50        59        110        27        64        54        45        79        84        97        80        82        46        86        83         
 41        91        97        6        57        99        13        110        53        90        117        10        36        95        25        22        79        4        47        93        47        21        79        52        76        65        7        10000000        64        76        69        31        92        65        70        30        63        76        3        1        100        52        84        35        92        44        8        35        95        77        36        81        34        62        59        13        22        92        51        30        66        71        56        88        31        74        85        60        37        85        85        57        69        99        57        59        81        52        52        76        30        22        58        62        85        74        43        53        103        21        58        50        38        72        77        90        74        75        39        82        76         
 42        50        58        67        11        71        51        68        28        86        80        60        64        53        39        60        42        62        35        33        18        44        14        38        13        83        71        64        10000000        54        63        42        50        17        76        37        16        14        67        65        57        65        34        67        39        40        57        74        78        75        51        67        50        22        65        71        42        86        14        46        77        34        18        68        60        50        34        81        28        86        106        64        62        56        11        89        23        62        15        36        69        67        8        87        50        91        21        43        58        49        48        72        26        31        18        51        59        11        26        82        12         
 35        23        25        74        46        23        69        37        31        34        41        79        48        26        63        57        17        76        31        50        59        60        57        26        64        44        82        76        54        10000000        16        45        25        71        31        67        38        66        78        77        30        34        33        51        37        33        68        58        24        25        40        13        42        33        28        73        64        32        56        46        36        21        68        15        49        4        35        46        52        35        61        28        15        30        61        57        75        32        61        21        57        62        58        52        15        48        53        23        34        76        18        43        57        25        70        21        8        61        61        32        55         
 32        39        41        67        53        33        65        52        36        24        53        74        37        42        62        48        33        70        32        65        64        57        69        28        75        27        75        69        63        16        10000000        42        41        78        15        67        48        76        71        71        46        20        48        39        53        31        63        45        26        12        33        12        36        42        13        64        62        25        62        42        19        33        74        21        39        18        50        30        53        23        46        14        1        46        67        41        85        19        67        36        46        52        65        36        31        32        57        22        50        74        16        28        59        38        80        37        9        72        63        19        66         
 10        59        66        31        33        69        24        79        23        65        86        33        23        64        20        18        48        30        16        65        31        15        55        21        56        48        38        31        42        45        42        10000000        61        51        47        26        35        56        34        33        69        31        54        25        62        13        23        32        66        52        12        52        9        33        35        32        20        67        32        3        46        40        43        59        18        43        56        45        17        62        72        33        41        68        40        50        64        28        36        45        27        25        39        50        54        58        24        22        72        32        28        34        23        42        59        59        45        54        27        58        52         
 52        2        8        92        46        25        83        19        40        54        30        93        70        3        74        76        13        91        45        31        62        73        46        41        55        69        99        92        50        25        41        61        10000000        67        56        76        37        57        95        94        8        58        17        73        16        49        84        81        37        49        60        35        61        34        53        92        76        51        58        63        61        21        68        30        70        24        18        71        60        57        85        53        40        7        59        82        65        55        62        17        79        82        56        77        10        73        59        41        11        87        39        67        64        22        61        4        33        52        67        55        45         
 53        66        75        69        25        88        52        84        42        102        97        58        73        70        41        66        59        62        48        46        20        47        24        51        16        96        72        65        17        71        78        51        67        10000000        90        35        32        15        68        66        74        78        50        76        55        52        59        82        94        90        62        83        60        38        79        74        43        102        18        54        91        51        9        85        69        66        50        94        34        101        119        77        77        73        11        100        16        74        14        53        77        73        13        99        67        104        26        57        74        46        63        83        29        48        14        68        75        18        27        98        24         
 39        54        55        66        65        44        68        65        48        21        64        76        34        57        67        48        48        71        42        80        74        61        83        39        88        13        74        70        76        31        15        47        56        90        10000000        74        61        89        71        71        60        17        63        35        68        39        64        39        33        10        36        23        39        55        12        62        67        24        72        46        5        48        85        32        38        34        65        17        61        16        31        14        17        60        79        28        98        19        77        51        42        49        77        23        46        17        66        33        64        78        28        21        68        52        93        52        24        85        72        12        80         
 35        75        82        34        33        89        17        95        37        91        104        23        47        79        7        35        64        26        36        69        19        15        51        41        47        75        36        30        37        67        67        26        76        35        74        10000000        40        47        33        30        84        57        64        48        71        36        24        53        90        78        38        76        35        42        62        40        9        92        23        28        73        55        26        82        41        64        64        71        16        88        97        60        66        83        28        74        51        55        23        59        47        41        30        75        71        84        18        46        86        12        51        60        12        54        48        75        68        47        11        84        49         
 31        36        45        64        9        56        51        56        14        71        67        60        54        40        40        53        27        61        23        31        25        42        22        24        27        69        70        63        16        38        48        35        37        32        61        40        10000000        29        65        64        45        52        23        57        30        28        55        65        62        60        41        51        41        6        51        67        43        70        21        38        63        19        31        53        51        34        24        68        26        70        91        50        46        44        23        77        37        48        25        21        61        60        20        74        35        76        23        29        47        52        33        60        28        16        32        38        43        24        30        67        19         
 56        57        65        79        25        80        63        73        42        99        86        70        78        60        51        74        52        73        50        33        29        57        11        52        2        97        83        76        14        66        76        56        57        15        89        47        29        10000000        79        77        63        79        40        81        43        54        69        88        89        88        66        79        64        34        79        84        54        98        25        60        91        45        22        79        74        62        39        96        41        99        120        78        75        62        19        103        9        76        24        46        83        81        18        102        59        105        34        57        63        59        62        86        38        41        4        59        72        5        37        95        12         
 43        93        99        5        60        101        16        112        56        91        119        12        36        97        28        23        82        6        49        96        50        24        81        54        79        66        4        3        67        78        71        34        95        68        71        33        65        79        10000000        2        102        53        87        36        94        46        11        35        97        78        38        82        36        64        60        12        25        93        54        32        67        74        59        90        32        76        88        60        40        86        85        58        70        102        60        58        84        53        55        78        30        22        61        62        87        74        46        55        105        24        60        51        41        75        80        93        76        78        42        83        79         
 42        92        99        6        59        100        14        111        55        91        118        10        37        96        26        23        81        4        48        95        48        22        80        53        77        66        6        1        65        77        71        33        94        66        71        30        64        77        2        10000000        101        54        85        36        93        45        9        36        96        79        38        82        35        63        60        13        23        93        52        31        68        73        57        90        33        75        87        61        38        87        86        58        70        101        58        59        81        53        53        77        31        23        59        63        86        75        44        54        104        21        59        52        39        74        78        92        75        76        40        83        77         
 59        9        5        99        53        23        91        11        47        55        23        100        77        5        81        83        21        99        53        34        70        81        52        48        61        73        107        100        57        30        46        69        8        74        60        84        45        63        102        101        10000000        64        23        79        20        56        92        87        37        52        67        38        68        42        58        99        83        52        65        70        65        29        75        31        77        30        24        76        68        59        88        59        45        1        67        87        71        61        69        25        86        89        64        82        16        76        67        48        4        94        46        73        72        29        67        10        37        58        75        58        51         
 25        56        59        49        54        53        51        71        38        37        73        59        17        60        51        31        47        54        30        76        60        44        74        28        78        18        57        52        65        34        20        31        58        78        17        57        52        79        53        54        64        10000000        60        19        67        26        47        25        45        25        19        32        22        47        7        45        50        40        59        29        15        44        72        41        21        34        62        16        47        33        41        6        21        64        66        25        88        4        64        48        26        33        65        22        48        27        52        23        68        61        21        9        53        48        83        54        28        75        57        29        71         
 47        17        25        85        31        41        73        34        31        66        46        83        68        20        63        71        16        82        39        17        48        64        29        36        38        74        91        84        34        33        48        54        17        50        63        64        23        40        87        85        23        60        10000000        71        8        44        76        79        52        58        56        45        57        22        57        86        65        64        43        57        67        16        52        43        66        30        2        75        49        67        94        56        47        22        44        85        48        57        47        13        76        78        41        82        21        80        46        39        24        75        40        69        52        13        44        20        40        35        54        65        28         
 26        71        75        31        56        72        37        88        43        56        91        43        3        75        41        14        60        37        34        85        56        33        78        35        80        30        39        35        67        51        39        25        73        76        35        48        57        81        36        36        79        19        71        10000000        78        28        31        8        64        44        16        51        17        53        26        26        39        59        57        22        32        55        68        60        7        50        73        25        42        51        51        25        39        79        65        26        88        20        61        59        7        14        64        28        64        39        49        32        83        48        34        15        47        58        84        70        46        78        51        47        75         
 54        17        23        92        38        41        81        30        39        69        43        90        75        18        70        79        20        90        47        15        55        71        32        44        41        80        99        92        39        37        53        62        16        55        68        71        30        43        94        93        20        67        8        78        10000000        51        84        86        53        62        64        49        64        30        63        94        73        67        50        64        72        23        58        45        74        35        6        81        57        71        98        62        52        19        50        92        51        63        53        19        84        85        47        88        23        85        53        46        20        82        46        76        59        20        47        20        45        39        61        69        32         
 3        47        53        43        29        56        36        66        14        55        73        46        25        51        31        28        36        43        5        57        34        27        51        8        53        44        50        44        40        33        31        13        49        52        39        36        28        54        46        45        56        26        44        28        51        10000000        36        36        54        42        13        40        13        24        27        43        32        56        34        14        39        29        46        47        23        30        46        42        22        53        67        25        30        56        41        49        62        22        39        33        33        34        39        47        41        52        27        10        60        43        16        32        29        31        58        47        33        51        33        49        47         
 33        83        89        10        50        91        8        102        45        84        109        12        31        87        18        17        71        7        39        85        40        13        71        44        69        61        15        8        57        68        63        23        84        59        64        24        55        69        11        9        92        47        76        31        84        36        10000000        33        88        71        30        74        27        54        53        16        16        86        44        22        61        63        50        81        26        66        77        56        29        80        82        51        62        91        50        56        74        46        46        68        27        20        51        59        77        70        36        45        95        19        50        46        31        64        71        82        67        68        33        76        68         
 34        79        83        30        64        78        40        95        51        60        98        44        11        82        45        17        68        38        41        93        62        38        86        43        87        32        37        35        74        58        45        32        81        82        39        53        65        88        35        36        87        25        79        8        86        36        33        10000000        70        49        23        57        24        61        32        24        44        63        64        29        35        63        74        66        14        57        81        26        48        55        50        31        45        87        71        23        95        26        68        67        6        13        71        27        71        40        56        40        91        51        41        19        53        66        91        77        53        85        57        51        83         
 56        36        32        92        69        15        90        38        55        19        33        99        62        36        85        74        37        95        54        68        83        81        79        49        87        45        100        95        78        24        26        66        37        94        33        90        62        89        97        96        37        45        52        64        53        54        88        70        10000000        22        59        14        61        57        38        90        86        16        80        67        38        43        92        9        65        28        54        50        75        24        54        40        26        38        84        61        97        45        85        43        71        77        82        55        31        45        77        45        41        98        39        52        81        47        93        33        22        83        84        24        77         
 43        47        47        74        65        34        75        56        48        13        54        83        43        49        72        56        42        78        44        75        75        66        80        40        87        23        82        77        75        25        12        52        49        90        10        78        60        88        78        79        52        25        58        44        62        42        71        49        22        10000000        42        14        45        54        18        70        72        15        74        51        16        45        86        22        46        28        60        28        64        11        36        20        13        52        79        39        97        26        79        46        51        58        77        33        39        24        69        34        56        84        28        30        71        49        92        45        18        83        75        7        78         
 10        58        64        34        41        63        33        76        27        55        82        41        13        62        32        16        47        37        18        70        43        25        63        20        65        36        42        36        51        40        33        12        60        62        36        38        41        66        38        38        67        19        56        16        64        13        30        23        59        42        10000000        44        3        37        24        33        31        57        43        10        34        41        55        52        10        39        58        33        29        51        60        22        33        67        50        38        73        17        47        45        20        22        49        38        51        46        35        19        71        42        22        22        35        43        69        57        38        63        39        47        60         
 42        33        33        78        58        22        76        42        42        21        42        85        49        35        71        60        30        81        40        62        70        67        70        35        77        36        86        81        67        13        12        52        35        83        23        76        51        79        82        82        38        32        45        51        49        40        74        57        14        14        44        10000000        47        45        25        76        72        19        68        52        28        34        80        9        51        17        47        40        61        22        51        26        12        38        73        51        88        31        73        34        58        64        70        46        26        38        64        31        42        84        25        40        67        38        83        30        8        74        71        20        68         
 10        59        65        32        40        65        30        78        27        58        84        38        14        64        29        15        48        34        18        70        40        22        62        21        64        39        40        34        50        42        36        9        61        60        39        35        41        64        36        35        68        22        57        17        64        13        27        24        61        45        3        47        10000000        37        27        31        28        60        41        7        37        42        52        55        10        40        59        36        26        54        62        25        35        68        48        40        72        20        45        46        20        21        47        40        53        48        33        20        72        39        24        25        32        44        67        59        40        61        36        50        59         
 27        33        41        63        13        51        51        53        10        65        63        60        50        37        40        50        23        60        19        33        28        41        28        19        33        63        69        62        22        33        42        33        34        38        55        42        6        34        64        63        42        47        22        53        30        24        54        61        57        54        37        45        37        10000000        45        65        43        64        25        35        57        14        36        47        47        29        24        63        27        64        86        44        40        41        28        72        43        43        29        17        57        57        25        69        31        71        25        24        44        53        28        55        30        13        38        34        38        30        33        61        25         
 27        51        54        55        55        47        57        65        38        31        67        65        24        54        55        37        43        60        31        73        62        49        73        28        78        18        64        59        65        28        13        35        53        79        12        62        51        79        60        60        58        7        57        26        63        27        53        32        38        18        24        25        27        45        10000000        52        55        33        61        34        12        41        73        34        28        29        59        19        49        27        40        2        14        58        67        29        88        7        66        44        33        40        65        25        43        25        55        22        62        66        18        15        56        45        83        49        22        75        60        23        70         
 40        90        96        7        63        95        23        109        55        82        114        23        28        95        34        16        79        16        48        97        55        27        85        51        84        56        13        13        71        73        64        32        92        74        62        40        67        84        12        13        99        45        86        26        94        43        16        24        90        70        33        76        31        65        52        10000000        31        85        59        30        58        72        65        84        25        71        88        50        43        77        74        50        64        99        65        47        89        45        61        77        20        13        66        51        84        64        50        51        103        33        55        41        46        74        86        90        70        82        48        74        82         
 30        74        82        25        36        87        9        94        36        85        103        18        38        79        3        26        63        19        33        73        25        6        57        38        54        67        29        22        42        64        62        20        76        43        67        9        43        54        25        23        83        50        65        39        73        32        16        44        86        72        31        72        28        43        55        31        10000000        87        29        21        65        54        34        78        33        61        66        63        16        82        89        53        61        83        35        65        59        48        30        59        38        32        36        67        70        76        22        41        86        12        47        52        16        54        55        75        64        53        17        78        54         
 57        50        47        89        77        30        89        53        60        4        48        98        57        50        86        70        48        93        57        81        88        81        89        52        96        34        97        92        86        32        25        67        51        102        24        92        70        98        93        93        52        40        64        59        67        56        86        63        16        15        57        19        60        64        33        85        87        10000000        86        66        28        53        98        21        61        36        66        40        78        10        39        35        26        53        91        50        107        40        91        53        66        72        89        43        43        31        82        47        56        98        41        44        84        57        102        47        27        93        88        12        87         
 35        57        65        54        12        76        38        76        25        86        87        46        55        61        26        49        48        48        30        46        5        31        28        34        25        77        58        51        14        56        62        32        58        18        72        23        21        25        54        52        65        59        43        57        50        34        44        64        80        74        43        68        41        25        61        59        29        86        10000000        36        73        39        13        71        50        52        44        75        16        84        101        59        60        64        7        81        31        56        5        42        59        56        7        81        56        86        9        40        67        35        46        65        13        37        27        58        60        24        13        81        25         
 11        61        68        29        36        69        23        80        26        64        87        33        20        65        21        15        50        29        18        68        34        15        58        22        59        46        36        30        46        46        42        3        63        54        46        28        38        60        32        31        70        29        57        22        64        14        22        29        67        51        10        52        7        35        34        30        21        66        36        10000000        45        42        46        60        15        44        58        43        20        61        69        32        41        70        43        47        67        27        39        47        24        22        42        48        55        56        27        23        74        32        28        32        25        44        62        61        45        57        29        57        55         
 39        59        60        62        67        49        66        70        50        25        70        73        31        61        66        45        52        68        43        84        74        59        85        40        90        8        70        66        77        36        19        46        61        91        5        73        63        91        67        68        65        15        67        32        72        39        61        35        38        16        34        28        37        57        12        58        65        28        73        45        10000000        51        85        37        35        38        69        12        61        20        28        14        21        65        80        23        100        18        78        54        38        46        78        17        51        13        67        34        69        76        30        17        67        56        95        57        28        87        72        16        82         
 32        20        27        71        27        37        62        40        18        54        49        72        52        24        52        56        9        70        25        32        43        52        36        21        43        59        78        71        34        21        33        40        21        51        48        55        19        45        74        73        29        44        16        55        23        29        63        63        43        45        41        34        42        14        41        72        54        53        39        42        51        10000000        50        34        51        17        18        59        39        55        79        40        32        28        42        69        54        41        44        4        61        63        39        66        17        65        38        23        32        65        24        53        43        4        49        20        27        40        47        52        34         
 47        67        75        60        23        87        43        86        38        98        98        49        66        71        32        58        59        53        43        51        12        38        30        47        23        90        63        56        18        68        74        43        68        9        85        26        31        22        59        57        75        72        52        68        58        46        50        74        92        86        55        80        52        36        73        65        34        98        13        46        85        50        10000000        83        61        64        52        87        26        97        113        72        73        74        8        93        25        68        8        53        69        64        11        92        67        98        19        53        76        37        58        77        21        48        22        69        72        24        18        93        28         
 49        28        26        86        60        13        83        34        46        24        33        92        57        29        77        68        28        89        46        60        74        73        70        41        77        45        94        88        68        15        21        59        30        85        32        82        53        79        90        90        31        41        43        60        45        47        81        66        9        22        52        9        55        47        34        84        78        21        71        60        37        34        83        10000000        59        19        45        49        66        28        57        35        21        32        75        60        88        40        76        34        67        72        72        54        22        46        68        37        35        90        31        49        72        38        83        26        14        74        76        26        68         
 20        68        73        28        50        71        31        85        37        59        90        38        5        72        34        9        57        33        28        80        49        26        72        30        73        35        36        31        60        49        39        18        70        69        38        41        51        74        32        33        77        21        66        7        74        23        26        14        65        46        10        51        10        47        28        25        33        61        50        15        35        51        61        59        10000000        48        68        31        35        54        57        26        39        76        58        33        81        21        54        55        10        13        57        34        61        44        42        28        80        42        31        20        40        53        77        67        45        71        44        50        69         
 33        22        26        72        41        26        66        38        27        37        43        76        47        25        60        55        14        73        28        47        55        57        53        23        60        45        80        74        50        4        18        43        24        66        34        64        34        62        76        75        30        34        30        50        35        30        66        57        28        28        39        17        40        29        29        71        61        36        52        44        38        17        64        19        48        10000000        32        47        48        38        64        29        17        30        56        58        71        32        57        18        56        60        54        54        14        50        49        21        34        72        17        43        53        21        66        20        11        57        57        35        51         
 49        19        26        86        32        43        74        35        33        68        47        84        70        21        64        73        18        84        41        15        48        65        28        38        37        76        93        85        34        35        50        56        18        50        65        64        24        39        88        87        24        62        2        73        6        46        77        81        54        60        58        47        59        24        59        88        66        66        44        58        69        18        52        45        68        32        10000000        77        50        70        96        58        49        23        44        88        47        59        47        15        78        79        41        84        23        82        47        41        25        76        42        71        52        15        43        21        42        34        54        67        27         
 40        69        71        55        71        61        62        82        54        36        82        68        25        72        64        39        61        62        46        92        75        57        91        44        94        6        63        60        81        46        30        45        71        94        17        71        68        96        60        61        76        16        75        25        81        42        56        26        50        28        33        40        36        63        19        50        63        40        75        43        12        59        87        49        31        47        77        10000000        62        30        27        19        31        76        82        11        104        20        80        63        30        38        81        6        61        14        68        39        80        73        36        11        68        63        99        67        39        92        72        28        88         
 22        59        67        39        21        74        25        79        21        77        88        34        40        63        14        33        48        34        21        57        14        16        42        26        41        64        44        37        28        52        53        17        60        34        61        16        26        41        40        38        68        47        49        42        57        22        29        48        75        64        29        61        26        27        49        43        16        78        16        20        61        39        26        66        35        48        50        62        10000000        75        88        47        52        67        23        67        48        43        19        43        43        40        23        67        56        73        8        31        71        26        37        51        6        39        43        60        53        39        10        71        39         
 53        55        53        82        76        38        84        61        59        6        57        92        50        56        82        64        52        87        55        85        86        76        91        50        97        25        90        85        86        35        23        62        57        101        16        88        70        99        86        87        59        33        67        51        71        53        80        55        24        11        51        22        54        64        27        77        82        10        84        61        20        55        97        28        54        38        70        30        75        10000000        30        29        24        59        90        40        108        34        89        56        58        65        88        34        48        22        79        45        63        93        39        36        81        59        103        52        28        94        85        4        88         
 66        84        83        80        95        68        88        91        78        35        87        94        52        85        90        65        78        87        71        111        101        83        113        68        118        23        87        85        106        61        46        72        85        119        31        97        91        120        85        86        88        41        94        51        98        67        82        50        54        36        60        51        62        86        40        74        89        39        101        69        28        79        113        57        57        64        96        27        88        30        10000000        42        47        89        107        27        128        45        105        81        55        63        106        23        76        15        94        62        92        99        58        37        94        83        123        81        54        115        98        31        110         
 25        51        54        54        53        48        55        66        36        33        68        63        23        54        53        35        42        58        29        72        60        47        72        26        76        19        62        57        64        28        14        33        53        77        14        60        50        78        58        58        59        6        56        25        62        25        51        31        40        20        22        26        25        44        2        50        53        35        59        32        14        40        72        35        26        29        58        19        47        29        42        10000000        15        58        66        29        86        5        64        43        32        38        64        26        43        27        53        21        63        64        17        14        54        44        81        49        22        74        58        25        69         
 31        38        40        66        52        33        65        51        35        25        53        74        37        41        61        48        31        69        31        64        62        56        67        26        73        28        74        69        62        15        1        41        40        77        17        66        46        75        70        70        45        21        47        39        52        30        62        45        26        13        33        12        35        40        14        64        61        26        60        41        21        32        73        21        39        17        49        31        52        24        47        15        10000000        45        66        42        84        19        66        34        46        52        64        37        30        33        56        21        49        73        15        29        58        36        79        36        8        70        62        21        65         
 59        9        6        99        52        24        90        12        47        56        24        100        76        4        81        83        20        98        52        34        69        80        51        48        60        73        106        99        56        30        46        68        7        73        60        83        44        62        102        101        1        64        22        79        19        56        91        87        38        52        67        38        68        41        58        99        83        53        64        70        65        28        74        32        76        30        23        76        67        59        89        58        45        10000000        66        87        70        61        69        24        85        89        63        82        16        76        66        48        4        94        46        73        71        29        66        9        37        57        74        58        50         
 42        59        67        60        15        79        44        78        31        91        89        51        62        63        32        56        50        54        37        44        10        38        24        40        19        84        64        57        11        61        67        40        59        11        79        28        23        19        60        58        67        66        44        65        50        41        50        71        84        79        50        73        48        28        67        65        35        91        7        43        80        42        8        75        58        56        44        82        23        90        107        66        66        66        10000000        88        24        63        5        44        66        63        3        88        58        93        16        46        68        40        51        72        19        39        20        60        65        19        18        87        22         
 47        80        82        53        78        73        63        93        62        46        93        67        27        83        67        40        72        61        54        102        81        59        99        53        102        16        60        59        89        57        41        50        82        100        28        74        77        103        58        59        87        25        85        26        92        49        56        23        61        39        38        51        40        72        29        47        65        50        81        47        23        69        93        60        33        58        88        11        67        40        27        29        42        87        88        10000000        111        29        86        73        29        37        87        6        72        20        74        48        91        74        46        17        72        73        106        78        50        100        76        38        96         
 64        65        73        84        33        89        68        81        50        108        94        74        86        68        56        80        60        77        58        39        34        62        19        60        11        105        87        81        23        75        85        64        65        16        98        51        37        9        84        81        71        88        48        88        51        62        74        95        97        97        73        88        72        43        88        89        59        107        31        67        100        54        25        88        81        71        47        104        48        108        128        86        84        70        24        111        10000000        84        29        55        90        87        25        110        68        113        40        66        71        62        70        94        44        50        5        68        81        14        42        104        21         
 21        53        57        48        51        52        49        69        34        38        72        57        18        57        48        30        44        52        26        73        56        42        71        24        75        21        56        52        62        32        19        28        55        74        19        55        48        76        53        53        61        4        57        20        63        22        46        26        45        26        17        31        20        43        7        45        48        40        56        27        18        41        68        40        21        32        59        20        43        34        45        5        19        61        63        29        84        10000000        61        44        27        33        61        26        46        30        49        19        65        59        17        12        50        44        79        52        26        72        54        30        68         
 39        61        70        56        16        81        39        81        31        91        92        46        59        65        27        52        52        49        35        48        5        33        29        39        24        82        59        52        15        61        67        36        62        14        77        23        25        24        55        53        69        64        47        61        53        39        46        68        85        79        47        73        45        29        66        61        30        91        5        39        78        44        8        76        54        57        47        80        19        89        105        64        66        69        5        86        29        61        10000000        46        62        59        7        85        60        91        12        45        71        35        51        70        15        41        25        63        65        24        13        86        26         
 36        16        24        76        30        35        66        36        23        55        46        76        56        20        57        61        6        74        29        30        46        56        36        25        44        61        83        76        36        21        36        45        17        53        51        59        21        46        78        77        25        48        13        59        19        33        68        67        43        46        45        34        46        17        44        77        59        53        42        47        54        4        53        34        55        18        15        63        43        56        81        43        34        24        44        73        55        44        46        10000000        65        67        41        69        14        67        42        27        28        70        27        57        47        5        50        17        28        41        50        53        34         
 30        77        82        25        59        79        34        94        47        63        98        39        9        81        40        11        66        32        38        90        57        32        82        40        83        36        33        30        69        57        46        27        79        77        42        47        61        83        30        31        86        26        76        7        84        33        27        6        71        51        20        58        20        57        33        20        38        66        59        24        38        61        69        67        10        56        78        30        43        58        55        32        46        85        66        29        90        27        62        65        10000000        8        66        32        70        44        51        38        90        45        40        22        48        63        86        76        53        81        51        54        79         
 31        80        85        17        58        84        27        98        47        70        103        31        15        84        34        7        69        24        39        90        53        26        80        42        80        44        25        22        67        62        52        25        82        73        49        41        60        81        22        23        89        33        78        14        85        34        20        13        77        58        22        64        21        57        40        13        32        72        56        22        46        63        64        72        13        60        79        38        40        65        63        38        52        89        63        37        87        33        59        67        8        10000000        63        40        73        52        47        41        93        38        44        29        44        65        83        79        58        78        47        61        77         
 40        56        64        61        12        76        45        75        29        89        86        53        61        59        33        56        47        55        35        41        11        38        22        38        18        82        65        58        8        58        65        39        56        13        77        30        20        18        61        59        64        65        41        64        47        39        51        71        82        77        49        70        47        25        65        66        36        89        7        42        78        39        11        72        57        54        41        81        23        88        106        64        64        63        3        87        25        61        7        41        66        63        10000000        86        55        91        16        44        65        42        49        71        20        36        20        57        62        17        19        84        19         
 46        75        77        57        77        67        65        87        60        39        87        71        29        78        68        42        67        64        52        98        80        61        97        50        100        9        64        62        87        52        36        50        77        99        23        75        74        102        62        63        82        22        82        28        88        47        59        27        55        33        38        46        40        69        25        51        67        43        81        48        17        66        92        54        34        54        84        6        67        34        23        26        37        82        88        6        110        26        85        69        32        40        86        10000000        67        14        73        45        86        76        43        16        73        70        105        73        45        98        77        31        94         
 44        8        12        84        44        21        76        25        34        45        33        86        61        11        68        68        8        84        38        38        59        67        49        33        57        59        92        85        50        15        31        54        10        67        46        71        35        59        87        86        16        48        21        64        23        41        77        71        31        39        51        26        53        31        43        84        70        43        56        55        51        17        67        22        61        14        23        61        56        48        76        43        30        16        58        72        68        46        60        14        70        73        55        67        10000000        63        55        33        20        81        30        57        60        19        63        6        23        54        63        46        47         
 51        71        71        69        80        58        76        80        63        27        78        82        39        73        77        53        64        76        56        97        86        70        98        53        103        9        77        74        91        48        32        58        73        104        17        84        76        105        74        75        76        27        80        39        85        52        70        40        45        24        46        38        48        71        25        64        76        31        86        56        13        65        98        46        44        50        82        14        73        22        15        27        33        76        93        20        113        30        91        67        44        52        91        14        63        10000000        79        47        80        86        43        24        80        69        108        68        40        100        84        20        96         
 28        58        66        46        15        74        31        78        22        81        88        39        47        62        19        40        47        41        25        51        7        23        35        29        33        70        50        43        21        53        57        24        59        26        66        18        23        34        46        44        67        52        46        49        53        27        36        56        77        69        35        64        33        25        55        50        22        82        9        27        67        38        19        68        42        49        47        68        8        79        94        53        56        66        16        74        40        49        12        42        51        47        16        73        55        79        10000000        35        69        30        41        58        6        37        36        59        56        32        8        75        32         
 12        39        45        52        33        46        46        58        16        47        64        56        29        43        41        35        28        53        10        54        41        37        52        6        56        40        59        53        43        23        22        22        41        57        33        46        29        57        55        54        48        23        39        32        46        10        45        40        45        34        19        31        20        24        22        51        41        47        40        23        34        23        53        37        28        21        41        39        31        45        62        21        21        48        46        48        66        19        45        27        38        41        44        45        33        47        35        10000000        52        53        6        31        37        26        61        38        23        53        41        41        49         
 63        13        9        103        55        26        94        10        50        59        23        103        80        9        84        87        24        102        56        34        72        84        52        52        61        77        110        103        58        34        50        72        11        74        64        86        47        63        105        104        4        68        24        83        20        60        95        91        41        56        71        42        72        44        62        103        86        56        67        74        69        32        76        35        80        34        25        80        71        63        92        63        49        4        68        91        71        65        71        28        90        93        65        86        20        80        69        52        10000000        97        50        77        74        32        67        14        41        59        77        61        52         
 41        85        93        26        45        98        11        105        47        97        114        12        47        89        13        34        74        17        44        81        31        17        63        50        59        77        27        21        49        76        74        32        87        46        78        12        52        59        24        21        94        61        75        48        82        43        19        51        98        84        42        84        39        53        66        33        12        98        35        32        76        65        37        90        42        72        76        73        26        93        99        64        73        94        40        74        62        59        35        70        45        38        42        76        81        86        30        53        97        10000000        59        62        24        65        59        86        76        59        23        89        61         
 17        37        42        56        38        41        51        55        21        41        60        61        31        41        46        38        27        57        16        56        47        42        55        11        60        36        64        58        48        18        16        28        39        63        28        51        33        62        60        59        46        21        40        34        46        16        50        41        39        28        22        25        24        28        18        55        47        41        46        28        30        24        58        31        31        17        42        36        37        39        58        17        15        46        51        46        70        17        51        27        40        44        49        43        30        43        41        6        50        59        10000000        29        43        27        65        36        17        57        47        35        52         
 30        65        68        46        61        61        51        80        45        41        81        58        15        68        53        29        56        52        37        85        65        46        82        36        85        15        54        50        72        43        28        34        67        83        21        60        60        86        51        52        73        9        69        15        76        32        46        19        52        30        22        40        25        55        15        41        52        44        65        32        17        53        77        49        20        43        71        11        51        36        37        14        29        73        72        17        94        12        70        57        22        29        71        16        57        24        58        31        77        62        29        10000000        57        57        90        63        37        83        61        33        79         
 28        63        71        41        21        79        25        83        26        83        93        34        45        67        13        37        52        35        27        57        9        18        41        32        38        71        45        38        26        57        59        23        64        29        68        12        28        38        41        39        72        53        52        47        59        29        31        53        81        71        35        67        32        30        56        46        16        84        13        25        67        43        21        72        40        53        52        68        6        81        94        54        58        71        19        72        44        50        15        47        48        44        20        73        60        80        6        37        74        24        43        57        10000000        42        40        64        59        37        4        77        38         
 34        21        29        72        25        40        62        40        19        58        51        72        55        25        52        58        11        71        26        28        41        52        32        23        40        63        79        72        31        25        38        42        22        48        52        54        16        41        75        74        29        48        13        58        20        31        64        66        47        49        43        38        44        13        45        74        54        57        37        44        56        4        48        38        53        21        15        63        39        59        83        44        36        29        39        73        50        44        41        5        63        65        36        70        19        69        37        26        32        65        27        57        42        10000000        46        22        31        36        45        56        30         
 59        61        69        81        28        84        64        77        45        103        90        71        81        64        52        76        56        74        53        36        30        58        15        55        6        100        84        77        18        70        80        59        61        14        93        48        32        4        80        78        67        83        44        84        47        58        71        91        93        92        69        83        67        38        83        86        55        102        27        62        95        49        22        83        77        66        43        99        43        103        123        81        79        66        20        106        5        79        25        50        86        83        20        105        63        108        36        61        67        59        65        90        40        46        10000000        63        76        9        38        99        16         
 50        3        7        90        46        22        81        20        38        50        29        91        67        5        73        73        11        89        43        35        62        71        49        39        57        64        97        90        51        21        37        59        4        68        52        75        38        59        93        92        10        54        20        70        20        47        82        77        33        45        57        30        59        34        49        90        75        47        58        61        57        20        69        26        67        20        21        67        60        52        81        49        36        9        60        78        68        52        63        17        76        79        57        73        6        68        59        38        14        86        36        63        64        22        63        10000000        28        54        67        51        47         
 35        31        32        72        50        26        68        43        34        27        45        78        44        33        63        54        25        74        32        57        62        59        63        27        70        36        80        74        59        8        9        45        33        75        24        68        43        72        76        75        37        28        40        46        45        33        67        53        22        18        38        8        40        38        22        70        64        27        60        45        28        27        72        14        45        11        42        39        53        28        54        22        8        37        65        50        81        26        65        28        53        58        62        45        23        40        56        23        41        76        17        37        59        31        76        28        10000000        67        63        25        61         
 53        52        60        78        21        75        62        69        38        94        81        70        75        55        50        71        47        72        46        29        28        55        7        48        3        93        82        75        11        61        72        54        52        18        85        47        24        5        78        76        58        75        35        78        39        51        68        85        83        83        63        74        61        30        75        82        53        93        24        57        87        40        24        74        71        57        34        92        39        94        115        74        70        57        19        100        14        72        24        41        81        78        17        98        54        100        32        53        59        59        57        83        37        36        9        54        67        10000000        36        91        7         
 33        66        74        43        23        82        26        86        30        88        96        34        49        70        14        40        55        36        31        58        8        21        41        36        37        75        46        39        26        61        63        27        67        27        72        11        30        37        42        40        75        57        54        51        61        33        33        57        84        75        39        71        36        33        60        48        17        88        13        29        72        47        18        76        44        57        54        72        10        85        98        58        62        74        18        76        42        54        13        50        51        47        19        77        63        84        8        41        77        23        47        61        4        45        38        67        63        36        10000000        81        38         
 49        53        52        78        72        38        80        60        56        9        57        88        46        55        78        60        49        83        51        82        82        72        88        46        94        22        86        82        82        32        19        58        55        98        12        84        67        95        83        83        58        29        65        47        69        49        76        51        24        7        47        20        50        61        23        74        78        12        81        57        16        52        93        26        50        35        67        28        71        4        31        25        21        58        87        38        104        30        86        53        54        61        84        31        46        20        75        41        61        89        35        33        77        56        99        51        25        91        81        10000000        85         
 50        45        53        78        19        68        63        62        34        88        74        71        72        48        51        70        40        73        42        23        30        55        3        43        10        88        83        76        12        55        66        52        45        24        80        49        19        12        79        77        51        71        28        75        32        47        68        83        77        78        60        68        59        25        70        82        54        87        25        55        82        34        28        68        69        51        27        88        39        88        110        69        65        50        22        96        21        68        26        34        79        77        19        94        47        96        32        49        52        61        52        79        38        30        16        47        61        7        38        85        10000000         
 DEMAND_SECTION: 
 0   711   0 
 1   12   2 
 2   8   4 
 3   6   9 
 4   1   3 
 5   11   0 
 6   8   1 
 7   12   7 
 8   8   11 
 9   3   8 
 10   12   0 
 11   12   2 
 12   12   7 
 13   2   3 
 14   3   9 
 15   19   0 
 16   14   3 
 17   12   7 
 18   8   11 
 19   2   6 
 20   19   0 
 21   11   2 
 22   3   2 
 23   5   6 
 24   3   10 
 25   18   0 
 26   4   1 
 27   4   2 
 28   1   1 
 29   1   3 
 30   4   0 
 31   9   2 
 32   6   4 
 33   2   2 
 34   2   4 
 35   5   0 
 36   9   2 
 37   9   5 
 38   3   4 
 39   1   2 
 40   6   0 
 41   14   3 
 42   12   7 
 43   6   9 
 44   3   12 
 45   17   0 
 46   3   0 
 47   8   5 
 48   8   11 
 49   1   2 
 50   12   0 
 51   5   1 
 52   9   5 
 53   1   0 
 54   3   9 
 55   18   0 
 56   4   1 
 57   6   3 
 58   4   6 
 59   1   0 
 60   1   0 
 61   13   3 
 62   8   5 
 63   7   10 
 64   2   4 
 65   16   0 
 66   13   3 
 67   3   2 
 68   5   6 
 69   4   12 
 70   17   0 
 71   4   1 
 72   1   0 
 73   7   10 
 74   4   13 
 75   14   0 
 76   1   0 
 77   3   2 
 78   1   0 
 79   4   12 
 80   14   0 
 81   14   3 
 82   11   6 
 83   2   1 
 84   1   3 
 85   9   0 
 86   16   3 
 87   9   5 
 88   8   11 
 89   3   8 
 90   10   0 
 91   6   1 
 92   3   1 
 93   5   7 
 94   2   5 
 95   2   0 
 96   14   3 
 97   2   1 
 98   8   11 
 99   1   1 
 100   18   0 
 101   0   372 
