NAME: ..//instances//e_vigo//TSP_PD_vrp200_100_2_0.00.tspBeta0.000000 
COMMENT: TSPSimoultaneousPickUpandDelivery_2008 
TYPE: TSPDC 
DIMENSION: 102 
CAPACITY: 546 
EDGE_WEIGHT_TYPE: EXPLICIT 
EDGE_WEIGHT_FORMAT: FULL_MATRIX 
EDGE_WEIGHT_SECTION: 
10000000        9        46        34        21        36        35        30        45        16        45        38        64        85        28        55        28        54        56        67        28        61        22        68        36        57        27        55        15        14        73        28        13        60        9        43        25        56        51        38        61        70        30        41        37        53        78        59        49        58        68        54        60        65        67        68        65        30        62        57        25        79        71        66        51        44        66        22        12        37        49        65        24        11        30        72        23        16        59        54        45        28        38        14        71        43        54        45        29        38        5        20        33        50        38        10        60        47        48        67        37         
 9        10000000        55        26        27        42        44        37        52        23        42        43        72        94        37        57        37        53        65        74        34        70        28        68        33        61        21        60        9        16        74        19        13        67        9        43        32        54        59        47        68        71        30        47        28        61        86        66        57        67        72        63        62        71        76        72        73        26        70        64        28        87        72        75        51        51        71        30        18        40        51        74        30        3        25        79        28        9        59        62        54        21        47        5        71        49        62        53        37        45        10        29        32        59        46        8        64        54        55        74        31         
 46        55        10000000        80        37        32        12        31        43        35        76        35        45        46        18        69        25        79        10        41        36        17        38        86        71        62        70        54        60        48        92        74        53        37        51        69        33        84        24        18        37        86        61        46        83        25        50        39        9        15        69        8        72        58        22        71        37        69        30        32        52        48        89        21        75        30        65        30        43        56        63        19        39        57        72        57        46        60        81        32        12        70        8        59        87        44        29        16        23        27        46        26        66        13        20        53        66        26        34        51        79         
 34        26        80        10000000        48        63        70        58        73        47        48        63        95        119        63        72        62        61        90        98        54        95        48        77        39        78        24        80        24        35        81        6        33        91        32        53        53        59        84        72        89        81        44        67        4        84        110        89        82        92        89        88        76        91        102        88        97        32        93        85        47        111        80        101        60        72        89        55        42        57        66        99        53        24        26        100        49        21        68        86        80        17        72        21        81        70        87        77        61        67        34        55        42        83        69        30        81        76        75        96        28         
 21        27        37        48        10000000        15        31        10        55        7        65        17        70        82        25        72        32        74        45        69        7        54        2        86        57        71        48        67        35        13        92        43        34        63        30        62        5        76        52        38        41        88        50        54        52        35        81        64        36        51        82        44        76        75        57        83        67        51        44        37        44        80        90        57        70        24        79        29        29        54        65        55        36        30        51        80        39        27        78        57        42        35        30        32        89        54        56        29        14        19        17        20        54        36        22        31        75        28        28        74        58         
 36        42        32        63        15        10000000        31        6        62        20        79        4        72        77        28        82        38        86        37        70        9        48        15        98        71        80        63        74        51        28        104        58        49        65        44        75        11        90        52        40        26        99        63        62        67        21        81        66        27        46        90        37        87        81        48        91        67        66        30        22        56        79        101        50        83        9        86        38        42        65        76        46        46        45        66        84        51        42        91        59        40        49        28        47        100        61        57        18        13        6        32        27        68        25        12        46        84        14        13        78        73         
 35        44        12        70        31        31        10000000        28        34        27        65        35        41        51        7        58        13        68        22        39        32        26        33        75        59        53        58        46        48        40        82        64        42        34        40        57        28        72        21        9        44        75        49        36        72        33        50        35        19        22        61        20        62        51        33        63        36        57        39        39        40        49        79        31        64        33        57        18        31        44        52        31        27        47        61        53        34        50        70        28        11        62        5        49        77        34        26        22        19        28        36        15        54        22        21        42        57        31        38        47        67         
 30        37        31        58        10        6        28        10000000        58        14        73        9        69        76        24        77        33        81        38        67        5        48        10        92        65        75        57        70        45        23        99        53        43        62        38        69        5        84        49        37        32        94        58        57        62        25        78        63        28        46        85        37        81        77        49        86        65        60        34        27        50        77        96        50        77        14        81        33        36        60        70        47        41        40        60        80        45        37        85        56        38        45        26        42        95        57        54        20        9        9        27        22        62        27        13        40        79        18        18        74        67         
 45        52        43        73        55        62        34        58        10000000        49        45        66        22        54        34        28        24        42        50        28        59        44        57        45        45        20        52        13        49        57        51        67        41        21        43        35        55        48        24        25        78        44        34        8        74        66        38        18        51        42        28        48        30        20        56        29        28        47        72        73        28        40        48        52        38        66        24        26        34        22        23        54        22        52        53        27        25        60        42        19        32        73        38        54        46        4        22        56        49        60        50        36        39        55        54        45        23        64        71        22        58         
 16        23        35        47        7        20        27        14        49        10000000        59        22        64        78        21        65        26        67        44        65        13        52        9        80        51        65        43        61        31        13        86        41        29        58        24        56        9        70        47        34        46        81        44        47        50        38        76        58        36        49        75        43        70        69        56        76        62        46        47        41        37        76        83        56        64        28        72        23        23        48        59        54        30        26        46        74        33        25        72        52        38        36        28        28        82        48        51        30        14        23        13        14        48        36        23        26        68        31        33        68        53         
 45        42        76        48        65        79        65        73        45        59        10000000        81        66        98        60        28        52        13        86        72        72        85        67        29        10        38        25        44        34        57        33        45        31        66        36        10        69        12        66        60        103        33        16        37        46        93        82        63        83        82        47        84        32        54        95        45        72        17        101        98        25        85        32        92        13        87        49        47        37        24        26        93        38        40        22        66        31        50        20        64        69        58        69        40        33        41        66        83        69        80        50        55        11        86        78        35        39        88        91        64        21         
 38        43        35        63        17        4        35        9        66        22        81        10000000        76        81        32        86        41        89        40        74        10        52        16        101        73        84        64        78        52        28        107        58        51        69        46        78        13        92        56        44        26        102        66        66        67        23        84        70        31        50        93        40        90        85        52        94        71        68        31        22        59        83        104        53        86        10        90        41        45        68        79        50        50        46        68        88        54        42        93        63        44        48        32        48        103        65        61        22        16        9        34        31        70        29        16        47        87        15        12        82        74         
 64        72        45        95        70        72        41        69        22        64        66        76        10000000        35        45        43        38        61        48        8        72        38        72        59        67        32        74        23        71        75        64        89        62        8        64        56        68        67        21        32        81        56        56        29        96        70        16        6        53        36        33        46        43        18        49        35        10        69        73        77        50        19        61        44        57        73        27        43        54        43        41        48        42        72        75        13        46        80        58        13        33        93        45        74        58        26        16        60        60        69        68        50        61        57        62        65        34        70        78        7        80         
 85        94        46        119        82        77        51        76        54        78        98        81        35        10000000        58        78        57        95        41        27        81        29        83        94        97        67        102        58        95        91        99        112        87        33        87        89        78        101        35        47        74        91        86        61        121        65        23        36        50        31        67        41        78        52        33        70        26        98        64        71        78        18        96        29        91        74        62        63        77        75        76        34        67        95        104        43        73        100        93        35        40        112        51        97        93        57        33        60        68        72        87        66        92        54        65        89        69        69        77        40        110         
 28        37        18        63        25        28        7        24        34        21        60        32        45        58        10000000        57        10        64        28        44        27        33        27        73        54        53        51        47        41        33        80        56        35        38        33        53        23        68        27        13        45        74        44        35        65        34        56        39        23        30        62        26        60        53        40        63        42        51        42        40        35        55        77        38        60        32        58        13        25        41        50        37        22        39        54        56        29        43        67        32        18        54        10        42        75        34        31        24        16        26        29        8        49        26        21        35        56        31        37        50        61         
 55        57        69        72        72        82        58        77        28        65        28        86        43        78        57        10000000        47        18        77        51        78        72        74        17        34        12        47        20        51        69        24        67        44        46        49        19        74        25        51        51        102        17        28        22        71        91        58        42        77        69        19        75        5        28        83        17        52        40        98        97        30        62        21        79        16        88        21        45        44        18        7        82        36        56        46        40        33        66        15        46        59        77        63        57        19        25        49        80        70        82        60        55        30        81        77        49        11        88        93        39        48         
 28        37        25        62        32        38        13        33        24        26        52        41        38        57        10        47        10000000        55        34        39        35        35        34        63        47        43        47        37        39        37        70        56        31        32        31        45        31        60        23        10        55        64        36        25        64        44        51        32        31        32        52        32        50        44        44        53        37        45        51        50        27        51        67        42        51        42        48        7        21        32        40        42        14        38        49        48        21        44        57        26        19        56        17        41        65        24        26        33        25        36        31        12        42        35        31        33        46        41        47        42        56         
 54        53        79        61        74        86        68        81        42        67        13        89        61        95        64        18        55        10000000        88        68        80        85        75        16        22        30        37        38        45        67        21        57        41        62        46        11        76        6        65        62        109        20        24        35        59        98        76        59        86        82        37        86        21        47        96        35        69        29        106        104        30        80        19        92        4        93        40        51        45        23        19        94        42        51        35        59        36        61        7        61        70        70        72        51        20        39        64        88        76        87        59        60        22        90        83        46        30        94        98        57        34         
 56        65        10        90        45        37        22        38        50        44        86        40        48        41        28        77        34        88        10000000        43        42        13        46        94        81        70        80        61        70        57        101        84        64        40        61        78        40        93        28        27        35        94        70        55        93        24        50        44        9        12        76        2        79        63        12        78        39        79        26        31        61        48        98        13        84        33        71        40        53        65        72        10        48        67        82        61        55        69        90        36        18        79        18        69        95        51        33        19        31        31        56        36        76        12        25        63        73        28        36        55        89         
 67        74        41        98        69        70        39        67        28        65        72        74        8        27        44        51        39        68        43        10000000        71        31        71        67        72        40        79        31        74        76        72        92        66        7        67        62        67        74        18        31        77        64        61        35        100        65        12        10        49        30        41        41        51        26        42        44        3        74        68        73        54        13        69        37        64        70        35        44        57        49        49        41        45        75        80        19        50        82        66        13        30        95        42        77        66        31        13        57        58        66        70        50        67        53        59        69        42        67        75        15        85         
 28        34        36        54        7        9        32        5        59        13        72        10        72        81        27        78        35        80        42        71        10000000        53        6        92        63        76        54        72        42        19        98        49        41        65        36        69        4        83        53        40        35        94        57        59        58        30        82        66        33        50        86        42        82        79        54        87        68        58        39        31        50        81        96        55        76        18        83        34        35        60        71        52        42        37        58        83        45        33        85        59        42        40        30        38        95        58        58        25        13        14        24        24        60        32        18        38        80        22        21        77        65         
 61        70        17        95        54        48        26        48        44        52        85        52        38        29        33        72        35        85        13        31        53        10000000        55        89        81        63        82        54        74        64        95        89        66        30        65        76        50        91        21        25        47        88        70        50        98        37        38        34        22        3        68        12        74        54        12        70        28        80        38        44        61        35        92        7        81        45        62        42        56        62        67        11        49        72        85        50        55        75        86        27        16        87        24        74        90        47        24        31        40        43        62        41        76        25        36        67        66        41        49        45        91         
 22        28        38        48        2        15        33        10        57        9        67        16        72        83        27        74        34        75        46        71        6        55        10000000        88        58        73        48        69        36        13        94        43        36        65        31        64        6        78        53        40        41        90        52        56        52        36        83        66        37        53        84        45        78        77        58        84        69        52        44        37        45        82        92        59        72        24        81        31        31        56        67        56        38        31        52        82        41        27        80        59        43        35        32        32        91        56        58        30        16        19        18        22        55        37        22        32        77        28        27        76        59         
 68        68        86        77        86        98        75        92        45        80        29        101        59        94        73        17        63        16        94        67        92        89        88        10000000        38        27        53        36        60        81        6        73        55        63        60        25        88        19        69        68        118        5        38        40        75        107        73        59        94        87        29        92        16        42        101        26        68        45        115        113        43        77        4        96        17        104        34        61        57        33        23        99        52        66        51        54        47        76        9        63        76        86        80        66        4        43        66        97        86        98        73        71        37        98        93        60        25        104        109        54        50         
 36        33        71        39        57        71        59        65        45        51        10        73        67        97        54        34        47        22        81        72        63        81        58        38        10000000        42        15        47        24        48        43        35        22        66        27        15        60        22        64        56        95        42        11        37        37        86        83        63        77        78        52        79        38        57        91        51        72        7        95        90        20        85        41        88        21        79        53        41        30        24        30        89        33        30        13        69        26        40        29        62        65        48        64        30        42        41        65        76        62        72        40        48        5        80        71        26        44        81        83        65        14         
 57        61        62        78        71        80        53        75        20        65        38        84        32        67        53        12        43        30        70        40        76        63        73        27        42        10000000        55        9        56        71        33        73        48        36        52        28        72        36        42        45        97        25        35        18        78        86        47        31        71        61        11        67        11        17        75        11        41        47        92        92        33        50        30        70        27        85        11        43        45        22        13        73        35        60        54        29        34        70        27        36        51        82        58        62        27        19        40        75        68        79        62        53        38        75        73        53        4        84        90        28        57         
 27        21        70        24        48        63        58        57        52        43        25        64        74        102        51        47        47        37        80        79        54        82        48        53        15        55        10000000        57        12        37        58        20        16        72        19        29        52        37        68        57        88        57        20        45        23        80        90        70        74        79        65        78        52        68        91        64        78        8        89        84        25        92        56        89        36        71        65        41        26        34        42        88        35        18        4        78        29        26        44        68        66        33        61        17        57        49        69        71        56        65        30        44        17        76        65        17        57        74        75        74        10         
 55        60        54        80        67        74        46        70        13        61        44        78        23        58        47        20        37        38        61        31        72        54        69        36        47        9        57        10000000        57        68        42        74        48        26        51        34        67        44        34        37        90        34        37        14        80        78        39        22        63        52        15        59        20        11        66        17        32        51        84        85        34        42        39        61        34        78        11        38        43        24        19        64        32        60        57        22        33        69        35        27        43        81        51        62        36        13        30        68        62        72        60        48        42        67        67        53        12        77        83        20        61         
 15        9        60        24        35        51        48        45        49        31        34        52        71        95        41        51        39        45        70        74        42        74        36        60        24        56        12        57        10000000        25        65        18        9        67        9        35        40        46        61        49        76        63        23        43        25        69        86        65        63        70        67        68        56        67        81        67        73        17        78        72        23        87        64        79        43        59        66        32        18        35        45        79        29        6        16        77        25        16        51        62        57        26        51        6        64        46        63        60        44        53        18        34        23        65        53        6        59        62        63        72        22         
 14        16        48        35        13        28        40        23        57        13        57        28        75        91        33        69        37        67        57        76        19        64        13        81        48        71        37        68        25        10000000        87        30        27        69        22        56        18        69        59        45        54        84        44        54        39        48        87        69        48        62        81        55        74        77        69        82        73        42        57        50        39        87        85        69        64        37        79        32        25        51        62        67        36        19        40        84        37        14        73        63        50        23        40        20        85        55        63        42        26        32        9        26        46        48        34        22        74        41        40        78        47         
 73        74        92        81        92        104        82        99        51        86        33        107        64        99        80        24        70        21        101        72        98        95        94        6        43        33        58        42        65        87        10000000        78        61        68        66        31        95        22        75        74        125        8        43        46        79        114        78        64        100        93        33        98        22        47        107        30        74        50        121        120        49        82        3        103        23        110        38        67        63        39        29        105        58        72        55        58        53        82        14        69        82        90        87        72        6        49        72        103        93        104        79        77        42        104        100        66        30        110        115        59        54         
 28        19        74        6        43        58        64        53        67        41        45        58        89        112        56        67        56        57        84        92        49        89        43        73        35        73        20        74        18        30        78        10000000        27        85        25        49        48        56        78        66        84        77        39        61        9        78        104        83        76        86        84        82        72        85        95        83        91        28        87        80        41        105        76        94        56        67        83        49        35        52        61        93        47        17        22        95        43        16        64        80        73        15        66        15        77        64        81        71        55        62        28        48        37        77        64        23        75        71        70        90        25         
 13        13        53        33        34        49        42        43        41        29        31        51        62        87        35        44        31        41        64        66        41        66        36        55        22        48        16        48        9        27        61        27        10000000        59        5        30        38        43        53        42        74        58        17        35        34        65        77        57        58        63        59        62        49        59        75        59        64        17        74        69        15        78        59        73        38        57        58        25        10        27        38        72        21        12        19        68        16        22        47        54        50        33        45        13        59        38        55        56        41        51        18        28        20        60        49        5        51        59        61        63        26         
 60        67        37        91        63        65        34        62        21        58        66        69        8        33        38        46        32        62        40        7        65        30        65        63        66        36        72        26        67        69        68        85        59        10000000        60        56        62        69        13        25        74        60        55        29        93        62        19        4        45        29        38        39        47        24        42        41        6        67        66        69        47        20        65        37        59        66        33        38        50        43        43        41        38        68        73        20        43        75        61        6        26        88        37        70        62        25        8        53        53        61        63        44        60        50        54        62        38        63        70        14        79         
 9        9        51        32        30        44        40        38        43        24        36        46        64        87        33        49        31        46        61        67        36        65        31        60        27        52        19        51        9        22        66        25        5        60        10000000        35        34        48        53        41        70        63        22        38        34        61        78        58        55        62        63        59        54        62        73        63        65        21        70        65        19        79        64        71        43        53        62        24        10        31        42        70        22        9        22        70        19        18        51        54        49        30        43        11        63        40        55        52        37        46        13        25        25        57        46        2        55        55        57        65        29         
 43        43        69        53        62        75        57        69        35        56        10        78        56        89        53        19        45        11        78        62        69        76        64        25        15        28        29        34        35        56        31        49        30        56        35        10000000        65        15        57        52        98        28        13        27        52        87        72        52        76        73        38        76        23        44        87        36        62        21        95        93        19        74        29        83        8        82        39        40        33        14        16        85        31        41        28        56        25        51        17        54        61        61        62        41        29        32        56        77        64        76        48        49        12        79        72        35        29        83        87        53        29         
 25        32        33        53        5        11        28        5        55        9        69        13        68        78        23        74        31        76        40        67        4        50        6        88        60        72        52        67        40        18        95        48        38        62        34        65        10000000        79        49        36        37        90        53        54        57        30        78        62        31        47        82        40        78        75        52        83        65        55        39        32        46        77        92        53        73        19        79        30        32        56        67        50        38        35        55        79        41        32        81        55        39        40        27        36        91        54        54        24        10        14        22        20        57        31        17        35        76        23        23        73        62         
 56        54        84        59        76        90        72        84        48        70        12        92        67        101        68        25        60        6        93        74        83        91        78        19        22        36        37        44        46        69        22        56        43        69        48        15        79        10000000        71        67        113        24        26        41        57        102        83        65        91        88        43        91        27        53        102        40        75        29        110        108        34        86        21        98        10        97        46        55        48        29        25        100        46        52        34        65        40        62        11        67        76        70        77        52        23        45        70        92        79        90        61        64        23        95        87        47        36        98        102        64        32         
 51        59        24        84        52        52        21        49        24        47        66        56        21        35        27        51        23        65        28        18        53        21        53        69        64        42        68        34        61        59        75        78        53        13        53        57        49        71        10000000        13        60        67        53        30        86        49        29        16        32        18        48        26        53        35        32        50        15        64        53        56        44        29        72        28        61        53        43        29        43        43        47        31        33        61        69        33        39        67        65        8        12        79        24        63        69        26        5        40        40        48        54        33        59        37        41        55        46        49        57        27        75         
 38        47        18        72        38        40        9        37        25        34        60        44        32        47        13        51        10        62        27        31        40        25        40        68        56        45        57        37        49        45        74        66        42        25        41        52        36        67        13        10000000        53        68        45        28        74        41        42        26        26        22        52        24        54        42        35        54        28        55        47        48        36        42        71        32        58        42        48        17        31        38        45        33        23        49        59        43        30        54        63        19        9        66        14        51        69        26        18        31        28        37        40        20        51        30        31        43        48        40        47        37        66         
 61        68        37        89        41        26        44        32        78        46        103        26        81        74        45        102        55        109        35        77        35        47        41        118        95        97        88        90        76        54        125        84        74        74        70        98        37        113        60        53        10000000        119        87        80        93        12        85        76        28        47        105        36        105        94        41        107        73        91        10        5        79        82        122        45        105        17        101        58        66        86        96        40        67        71        92        94        73        68        112        68        48        74        39        73        120        78        65        22        34        23        58        49        92        24        25        71        101        15        14        88        99         
 70        71        86        81        88        99        75        94        44        81        33        102        56        91        74        17        64        20        94        64        94        88        90        5        42        25        57        34        63        84        8        77        58        60        63        28        90        24        67        68        119        10000000        41        39        79        108        70        56        94        85        25        91        14        39        99        22        66        49        115        114        45        74        5        95        21        105        30        62        59        34        23        98        53        69        55        50        49        79        13        61        75        89        80        70        2        42        65        97        87        98        75        72        40        98        94        63        22        105        110        51        55         
 30        30        61        44        50        63        49        58        34        44        16        66        56        86        44        28        36        24        70        61        57        70        52        38        11        35        20        37        23        44        43        39        17        55        22        13        53        26        53        45        87        41        10000000        26        43        77        72        52        67        67        45        68        33        48        80        44        61        13        85        82        9        74        41        77        21        71        45        31        21        14        23        78        22        29        20        59        15        39        29        51        54        49        53        29        41        30        53        67        53        64        36        38        6        70        62        22        37        72        75        55        24         
 41        47        46        67        54        62        36        57        8        47        37        66        29        61        35        22        25        35        55        35        59        50        56        40        37        18        45        14        43        54        46        61        35        29        38        27        54        41        30        28        80        39        26        10000000        68        69        45        25        54        48        28        52        25        24        61        29        35        40        75        75        21        48        43        57        31        67        25        25        29        14        17        60        18        46        46        33        19        56        35        26        36        68        41        48        41        4        29        58        50        61        46        35        32        58        56        39        21        66        72        29        51         
 37        28        83        4        52        67        72        62        74        50        46        67        96        121        65        71        64        59        93        100        58        98        52        75        37        78        23        80        25        39        79        9        34        93        34        52        57        57        86        74        93        79        43        68        10000000        87        111        91        85        95        89        91        75        91        105        88        98        31        96        89        47        112        78        103        58        76        89        57        43        57        66        102        54        26        25        101        50        25        66        88        82        21        75        24        79        71        89        80        64        71        37        57        41        86        73        31        80        80        79        97        25         
 53        61        25        84        35        21        33        25        66        38        93        23        70        65        34        91        44        98        24        65        30        37        36        107        86        86        80        78        69        48        114        78        65        62        61        87        30        102        49        41        12        108        77        69        87        10000000        74        64        17        36        94        25        94        82        33        95        62        82        9        7        68        71        111        36        94        13        89        47        56        75        85        31        57        64        84        82        63        62        101        57        37        70        28        66        109        67        54        11        25        16        51        38        82        12        16        63        89        8        14        76        91         
 78        86        50        110        81        81        50        78        38        76        82        84        16        23        56        58        51        76        50        12        82        38        83        73        83        47        90        39        86        87        78        104        77        19        78        72        78        83        29        42        85        70        72        45        111        74        10000000        21        57        38        45        49        58        31        47        48        14        85        76        81        65        4        75        42        73        80        40        56        68        59        57        47        57        87        91        20        62        94        74        24        40        107        52        89        72        42        25        66        69        76        81        62        77        62        69        80        48        76        84        19        96         
 59        66        39        89        64        66        35        63        18        58        63        70        6        36        39        42        32        59        44        10        66        34        66        59        63        31        70        22        65        69        64        83        57        4        58        52        62        65        16        26        76        56        52        25        91        64        21        10000000        48        33        34        42        42        20        46        37        10        65        69        72        45        22        61        41        55        68        29        37        48        39        39        45        36        67        71        18        41        74        57        8        28        87        39        69        58        21        11        55        54        63        62        44        57        52        56        60        34        65        72        12        76         
 49        57        9        82        36        27        19        28        51        36        83        31        53        50        23        77        31        86        9        49        33        22        37        94        77        71        74        63        63        48        100        76        58        45        55        76        31        91        32        26        28        94        67        54        85        17        57        48        10000000        20        78        9        80        66        21        80        45        74        21        24        58        55        97        22        82        24        73        36        48        63        71        19        45        60        77        65        52        61        89        40        20        71        14        62        95        52        37        9        22        22        48        30        73        4        16        57        74        19        27        60        84         
 58        67        15        92        51        46        22        46        42        49        82        50        36        31        30        69        32        82        12        30        50        3        53        87        78        61        79        52        70        62        93        86        63        29        62        73        47        88        18        22        47        85        67        48        95        36        38        33        20        10000000        66        11        71        52        14        68        27        77        38        43        58        35        90        10        78        44        61        39        53        59        65        13        45        69        81        49        52        72        83        26        13        84        21        71        87        44        22        29        37        41        59        38        73        24        34        64        64        39        47        43        88         
 68        72        69        89        82        90        61        85        28        75        47        93        33        67        62        19        52        37        76        41        86        68        84        29        52        11        65        15        67        81        33        84        59        38        63        38        82        43        48        52        105        25        45        28        89        94        45        34        78        66        10000000        74        16        15        79        3        43        58        99        100        44        49        30        75        35        94        5        52        56        33        23        78        46        71        64        25        45        81        32        40        58        93        66        73        27        28        44        83        77        88        73        63        48        82        82        64        9        92        98        26        67         
 54        63        8        88        44        37        20        37        48        43        84        40        46        41        26        75        32        86        2        41        42        12        45        92        79        67        78        59        68        55        98        82        62        39        59        76        40        91        26        24        36        91        68        52        91        25        49        42        9        11        74        10000000        77        61        13        76        38        77        27        32        59        46        95        13        82        33        69        38        51        63        69        11        46        65        81        59        53        68        87        34        16        78        16        68        93        49        31        19        30        31        54        34        74        13        25        62        71        28        36        53        87         
 60        62        72        76        76        87        62        81        30        70        32        90        43        78        60        5        50        21        79        51        82        74        78        16        38        11        52        20        56        74        22        72        49        47        54        23        78        27        53        54        105        14        33        25        75        94        58        42        80        71        16        77        10000000        27        85        13        52        44        101        100        35        61        19        81        19        92        19        49        48        23        11        84        40        61        51        39        37        71        17        47        61        82        67        62        16        28        50        83        74        86        65        59        35        84        81        54        9        91        97        38        52         
 65        71        58        91        75        81        51        77        20        69        54        85        18        52        53        28        44        47        63        26        79        54        77        42        57        17        68        11        67        77        47        85        59        24        62        44        75        53        35        42        94        39        48        24        91        82        31        20        66        52        15        61        27        10000000        66        17        28        61        87        90        44        35        44        61        43        84        9        46        53        34        29        65        41        71        68        12        43        80        43        27        46        92        55        72        41        22        30        72        68        78        70        55        52        71        72        63        17        82        89        12        72         
 67        76        22        102        57        48        33        49        56        56        95        52        49        33        40        83        44        96        12        42        54        12        58        101        91        75        91        66        81        69        107        95        75        42        73        87        52        102        32        35        41        99        80        61        105        33        47        46        21        14        79        13        85        66        10000000        82        39        89        31        39        71        43        104        5        92        43        74        50        64        73        78        2        58        79        93        61        65        81        97        39        26        92        30        81        101        58        36        30        43        43        68        47        86        23        37        75        78        38        46        56        100         
 68        72        71        88        83        91        63        86        29        76        45        94        35        70        63        17        53        35        78        44        87        70        84        26        51        11        64        17        67        82        30        83        59        41        63        36        83        40        50        54        107        22        44        29        88        95        48        37        80        68        3        76        13        17        82        10000000        46        57        101        102        44        52        27        77        33        95        8        53        56        32        22        81        46        71        63        28        45        81        29        43        60        92        68        72        24        30        46        85        78        89        73        64        47        84        84        64        8        94        100        29        65         
 65        73        37        97        67        67        36        65        28        62        72        71        10        26        42        52        37        69        39        3        68        28        69        68        72        41        78        32        73        73        74        91        64        6        65        62        65        75        15        28        73        66        61        35        98        62        14        10        45        27        43        38        52        28        39        46        10000000        74        65        69        54        14        71        34        65        67        37        42        55        49        49        38        44        74        79        22        49        80        67        11        27        93        39        76        68        31        11        54        56        63        68        48        67        50        56        67        44        64        71        17        85         
 30        26        69        32        51        66        57        60        47        46        17        68        69        98        51        40        45        29        79        74        58        80        52        45        7        47        8        51        17        42        50        28        17        67        21        21        55        29        64        55        91        49        13        40        31        82        85        65        74        77        58        77        44        61        89        57        74        10000000        91        86        20        87        49        87        28        74        58        39        26        27        35        87        32        23        7        72        25        33        36        64        64        41        61        23        49        43        65        73        58        68        34        44        9        77        66        20        49        76        78        69        11         
 62        70        30        93        44        30        39        34        72        47        101        31        73        64        42        98        51        106        26        68        39        38        44        115        95        92        89        84        78        57        121        87        74        66        70        95        39        110        53        47        10        115        85        75        96        9        76        69        21        38        99        27        101        87        31        101        65        91        10000000        10        77        73        118        35        102        21        94        55        65        83        92        30        64        73        92        86        71        71        109        61        41        79        34        75        116        73        58        18        33        25        60        47        90        17        24        72        95        16        20        80        99         
 57        64        32        85        37        22        39        27        73        41        98        22        77        71        40        97        50        104        31        73        31        44        37        113        90        92        84        85        72        50        120        80        69        69        65        93        32        108        56        48        5        114        82        75        89        7        81        72        24        43        100        32        100        90        39        102        69        86        10        10000000        74        79        117        42        100        13        96        53        61        81        91        37        62        67        87        89        68        64        107        64        44        71        34        69        115        73        61        17        29        18        54        44        87        20        20        66        96        10        11        83        94         
 25        28        52        47        44        56        40        50        28        37        25        59        50        78        35        30        27        30        61        54        50        61        45        43        20        33        25        34        23        39        49        41        15        47        19        19        46        34        44        36        79        45        9        21        47        68        65        45        58        58        44        59        35        44        71        44        54        20        77        74        10000000        67        46        68        27        63        43        22        14        12        23        69        13        27        26        54        6        37        35        43        45        49        44        28        46        24        45        58        45        56        31        30        15        61        53        20        36        64        68        50        31         
 79        87        48        111        80        79        49        77        40        76        85        83        19        18        55        62        51        80        48        13        81        35        82        77        85        50        92        42        87        87        82        105        78        20        79        74        77        86        29        42        82        74        74        48        112        71        4        22        55        35        49        46        61        35        43        52        14        87        73        79        67        10000000        79        39        76        78        44        57        69        62        60        44        58        88        93        25        63        95        77        25        39        107        51        90        76        44        25        64        68        75        82        62        80        59        67        81        52        74        82        23        98         
 71        72        89        80        90        101        79        96        48        83        32        104        61        96        77        21        67        19        98        69        96        92        92        4        41        30        56        39        64        85        3        76        59        65        64        29        92        21        72        71        122        5        41        43        78        111        75        61        97        90        30        95        19        44        104        27        71        49        118        117        46        79        10000000        99        21        107        35        64        61        36        26        102        55        70        54        55        51        80        12        66        79        89        84        70        3        46        69        100        90        101        76        74        40        101        97        64        27        108        112        56        53         
 66        75        21        101        57        50        31        50        52        56        92        53        44        29        38        79        42        92        13        37        55        7        59        96        88        70        89        61        79        69        103        94        73        37        71        83        53        98        28        32        45        95        77        57        103        36        42        41        22        10        75        13        81        61        5        77        34        87        35        42        68        39        99        10000000        88        46        69        48        62        69        74        5        55        77        91        56        62        80        93        34        23        91        29        80        97        54        31        32        43        44        67        46        83        25        38        73        73        40        48        51        98         
 51        51        75        60        70        83        64        77        38        64        13        86        57        91        60        16        51        4        84        64        76        81        72        17        21        27        36        34        43        64        23        56        38        59        43        8        73        10        61        58        105        21        21        31        58        94        73        55        82        78        35        82        19        43        92        33        65        28        102        100        27        76        21        88        10000000        89        37        47        41        19        16        90        38        49        34        55        32        59        9        57        66        68        68        49        21        35        60        84        72        83        56        56        19        86        80        43        27        90        94        54        34         
 44        51        30        72        24        9        33        14        66        28        87        10        73        74        32        88        42        93        33        70        18        45        24        104        79        85        71        78        59        37        110        67        57        66        53        82        19        97        53        42        17        105        71        67        76        13        80        68        24        44        94        33        92        84        43        95        67        74        21        13        63        78        107        46        89        10000000        89        43        49        71        81        42        52        54        75        85        57        51        97        60        40        58        29        56        106        66        58        14        18        6        41        33        75        21        12        54        88        6        5        79        82         
 66        71        65        89        79        86        57        81        24        72        49        90        27        62        58        21        48        40        71        35        83        62        81        34        53        11        65        11        66        79        38        83        58        33        62        39        79        46        43        48        101        30        45        25        89        89        40        29        73        61        5        69        19        9        74        8        37        58        94        96        43        44        35        69        37        89        10000000        49        54        32        24        73        43        70        65        20        43        80        35        35        53        92        62        72        32        25        39        79        73        84        71        59        49        78        78        63        10        88        94        21        68         
 22        30        30        55        29        38        18        33        26        23        47        41        43        63        13        45        7        51        40        44        34        42        31        61        41        43        41        38        32        32        67        49        25        38        24        40        30        55        29        17        58        62        31        25        57        47        56        37        36        39        52        38        49        46        50        53        42        39        55        53        22        57        64        48        47        43        49        10000000        14        28        38        48        9        32        43        52        16        38        54        32        25        50        22        34        63        25        32        37        26        37        25        10        36        39        33        26        46        43        48        46        50         
 12        18        43        42        29        42        31        36        34        23        37        45        54        77        25        44        21        45        53        57        35        56        31        57        30        45        26        43        18        25        63        35        10        50        10        33        32        48        43        31        66        59        21        29        43        56        68        48        48        53        56        51        48        53        64        56        55        26        65        61        14        69        61        62        41        49        54        14        10000000        26        37        62        12        19        29        61        11        27        49        45        40        39        35        21        60        31        45        47        32        43        17        18        26        50        41        12        48        51        54        56        36         
 37        40        56        57        54        65        44        60        22        48        24        68        43        75        41        18        32        23        65        49        60        62        56        33        24        22        34        24        35        51        39        52        27        43        31        14        56        29        43        38        86        34        14        14        57        75        59        39        63        59        33        63        23        34        73        32        49        27        83        81        12        62        36        69        19        71        32        28        26        10000000        11        71        19        39        34        45        15        49        26        40        47        60        49        40        35        18        43        65        54        65        42        38        18        67        61        32        24        72        76        42        37         
 49        51        63        66        65        76        52        70        23        59        26        79        41        76        50        7        40        19        72        49        71        67        67        23        30        13        42        19        45        62        29        61        38        43        42        16        67        25        47        45        96        23        23        17        66        85        57        39        71        65        23        69        11        29        78        22        49        35        92        91        23        60        26        74        16        81        24        38        37        11        10000000        77        29        50        42        40        26        60        18        42        53        71        57        51        25        21        45        74        64        75        54        48        25        75        71        43        14        81        86        38        44         
 65        74        19        99        55        46        31        47        54        54        93        50        48        34        37        82        42        94        10        41        52        11        56        99        89        73        88        64        79        67        105        93        72        41        70        85        50        100        31        33        40        98        78        60        102        31        47        45        19        13        78        11        84        65        2        81        38        87        30        37        69        44        102        5        90        42        73        48        62        71        77        10000000        56        77        91        60        63        79        95        38        24        89        28        79        100        56        34        28        41        41        65        45        84        21        35        73        77        36        44        55        98         
 24        30        39        53        36        46        27        41        22        30        38        50        42        67        22        36        14        42        48        45        42        49        38        52        33        35        35        32        29        36        58        47        21        38        22        31        38        46        33        23        67        53        22        18        54        57        57        36        45        45        46        46        40        41        58        46        44        32        64        62        13        58        55        55        38        52        43        9        12        19        29        56        10000000        31        37        49        7        39        45        33        32        51        31        32        54        19        34        46        35        46        28        19        28        48        42        24        39        53        57        44        43         
 11        3        57        24        30        45        47        40        52        26        40        46        72        95        39        56        38        51        67        75        37        72        31        66        30        60        18        60        6        19        72        17        12        68        9        41        35        52        61        49        71        69        29        46        26        64        87        67        60        69        71        65        61        71        79        71        74        23        73        67        27        88        70        77        49        54        70        32        19        39        50        77        31        10000000        22        79        28        10        57        63        56        21        49        2        70        49        64        56        40        49        13        31        30        62        49        7        63        57        58        74        28         
 30        25        72        26        51        66        61        60        53        46        22        68        75        104        54        46        49        35        82        80        58        85        52        51        13        54        4        57        16        40        55        22        19        73        22        28        55        34        69        59        92        55        20        46        25        84        91        71        77        81        64        81        51        68        93        63        79        7        92        87        26        93        54        91        34        75        65        43        29        34        42        91        37        22        10000000        79        30        30        42        69        68        36        64        21        55        50        71        75        59        69        34        47        16        79        68        21        56        77        79        75        7         
 72        79        57        100        80        84        53        80        27        74        66        88        13        43        56        40        48        59        61        19        83        50        82        54        69        29        78        22        77        84        58        95        68        20        70        56        79        65        33        43        94        50        59        33        101        82        20        18        65        49        25        59        39        12        61        28        22        72        86        89        54        25        55        56        55        85        20        52        61        45        40        60        49        79        79        10000000        52        88        55        25        46        100        57        81        52        30        28        73        71        80        77        60        64        70        74        72        29        83        90        6        83         
 23        28        46        49        39        51        34        45        25        33        31        54        46        73        29        33        21        36        55        50        45        55        41        47        26        34        29        33        25        37        53        43        16        43        19        25        41        40        39        30        73        49        15        19        50        63        62        41        52        52        45        53        37        43        65        45        49        25        71        68        6        63        51        62        32        57        43        16        11        15        26        63        7        28        30        52        10000000        37        40        39        39        49        38        29        50        21        40        52        40        51        28        24        21        55        48        20        37        58        62        47        36         
 16        9        60        21        27        42        50        37        60        25        50        42        80        100        43        66        44        61        69        82        33        75        27        76        40        70        26        69        16        14        82        16        22        75        18        51        32        62        67        54        68        79        39        56        25        62        94        74        61        72        81        68        71        80        81        81        80        33        71        64        37        95        80        80        59        51        80        38        27        49        60        79        39        10        30        88        37        10000000        67        70        60        13        52        10        80        58        70        56        40        46        14        35        40        62        48        17        73        55        54        82        35         
 59        59        81        68        78        91        70        85        42        72        20        93        58        93        67        15        57        7        90        66        85        86        80        9        29        27        44        35        51        73        14        64        47        61        51        17        81        11        65        63        112        13        29        35        66        101        74        57        89        83        32        87        17        43        97        29        67        36        109        107        35        77        12        93        9        97        35        54        49        26        18        95        45        57        42        55        40        67        10000000        60        72        76        75        58        13        39        64        91        79        91        64        64        28        92        87        51        26        97        102        54        41         
 54        62        32        86        57        59        28        56        19        52        64        63        13        35        32        46        26        61        36        13        59        27        59        63        62        36        68        27        62        63        69        80        54        6        54        54        55        67        8        19        68        61        51        26        88        57        24        8        40        26        40        34        47        27        39        43        11        64        61        64        43        25        66        34        57        60        35        32        45        40        42        38        33        63        69        25        39        70        60        10000000        20        82        31        65        63        22        4        47        47        55        57        38        57        45        49        57        39        57        65        19        75         
 45        54        12        80        42        40        11        38        32        38        69        44        33        40        18        59        19        70        18        30        42        16        43        76        65        51        66        43        57        50        82        73        50        26        49        61        39        76        12        9        48        75        54        36        82        37        40        28        20        13        58        16        61        46        26        60        27        64        41        44        45        39        79        23        66        40        53        25        40        47        53        24        32        56        68        46        39        60        72        20        10000000        72        12        58        77        33        17        27        29        36        47        25        60        25        29        51        55        37        45        40        75         
 28        21        70        17        35        49        62        45        73        36        58        48        93        112        54        77        56        70        79        95        40        87        35        86        48        82        33        81        26        23        90        15        33        88        30        61        40        70        79        66        74        89        49        68        21        70        107        87        71        84        93        78        82        92        92        92        93        41        79        71        49        107        89        91        68        58        92        50        39        60        71        89        51        21        36        100        49        13        76        82        72        10000000        63        20        89        70        82        65        49        54        25        47        49        71        57        29        84        63        60        95        40         
 38        47        8        72        30        28        5        26        38        28        69        32        45        51        10        63        17        72        18        42        30        24        32        80        64        58        61        51        51        40        87        66        45        37        43        62        27        77        24        14        39        80        53        41        75        28        52        39        14        21        66        16        67        55        30        68        39        61        34        34        44        51        84        29        68        29        62        22        35        49        57        28        31        49        64        57        38        52        75        31        12        63        10000000        51        82        39        29        17        17        24        38        18        59        17        17        45        62        26        34        50        71         
 14        5        59        21        32        47        49        42        54        28        40        48        74        97        42        57        41        51        69        77        38        74        32        66        30        62        17        62        6        20        72        15        13        70        11        41        36        52        63        51        73        70        29        48        24        66        89        69        62        71        73        68        62        72        81        72        76        23        75        69        28        90        70        80        49        56        72        34        21        40        51        79        32        2        21        81        29        10        58        65        58        20        51        10000000        70        51        66        58        42        50        15        34        30        64        51        9        64        59        60        76        27         
 71        71        87        81        89        100        77        95        46        82        33        103        58        93        75        19        65        20        95        66        95        90        91        4        42        27        57        36        64        85        6        77        59        62        63        29        91        23        69        69        120        2        41        41        79        109        72        58        95        87        27        93        16        41        101        24        68        49        116        115        46        76        3        97        21        106        32        63        60        35        25        100        54        70        55        52        50        80        13        63        77        89        82        70        10000000        44        66        99        89        100        76        73        41        99        95        64        24        106        111        53        54         
 43        49        44        70        54        61        34        57        4        48        41        65        26        57        34        25        24        39        51        31        58        47        56        43        41        19        49        13        46        55        49        64        38        25        40        32        54        45        26        26        78        42        30        4        71        67        42        21        52        44        28        49        28        22        58        30        31        43        73        73        24        44        46        54        35        66        25        25        31        18        21        56        19        49        50        30        21        58        39        22        33        70        39        51        44        10000000        25        56        49        60        47        34        36        56        54        42        23        64        70        26        54         
 54        62        29        87        56        57        26        54        22        51        66        61        16        33        31        49        26        64        33        13        58        24        58        66        65        40        69        30        63        63        72        81        55        8        55        56        54        70        5        18        65        65        53        29        89        54        25        11        37        22        44        31        50        30        36        46        11        65        58        61        45        25        69        31        60        58        39        32        45        43        45        34        34        64        71        28        40        70        64        4        17        82        29        66        66        25        10000000        45        45        53        57        37        59        42        46        57        43        55        62        22        76         
 45        53        16        77        29        18        22        20        56        30        83        22        60        60        24        80        33        88        19        57        25        31        30        97        76        75        71        68        60        42        103        71        56        53        52        77        24        92        40        31        22        97        67        58        80        11        66        55        9        29        83        19        83        72        30        85        54        73        18        17        58        64        100        32        84        14        79        37        47        65        74        28        46        56        75        73        52        56        91        47        27        65        17        58        99        56        45        10000000        16        13        43        28        72        7        8        54        79        10        18        67        82         
 29        37        23        61        14        13        19        9        49        14        69        16        60        68        16        70        25        76        31        58        13        40        16        86        62        68        56        62        44        26        93        55        41        53        37        64        10        79        40        28        34        87        53        50        64        25        69        54        22        37        77        30        74        68        43        78        56        58        33        29        45        68        90        43        72        18        73        26        32        54        64        41        35        40        59        71        40        40        79        47        29        49        17        42        89        49        45        16        10000000        11        27        16        58        22        9        38        71        19        23        65        66         
 38        45        27        67        19        6        28        9        60        23        80        9        69        72        26        82        36        87        31        66        14        43        19        98        72        79        65        72        53        32        104        62        51        61        46        76        14        90        48        37        23        98        64        61        71        16        76        63        22        41        88        31        86        78        43        89        63        68        25        18        56        75        101        44        83        6        84        37        43        65        75        41        46        49        69        80        51        46        91        55        36        54        24        50        100        60        53        13        11        10000000        35        27        69        20        7        48        82        9        11        74        76         
 5        10        46        34        17        32        36        27        50        13        50        34        68        87        29        60        31        59        56        70        24        62        18        73        40        62        30        60        18        9        79        28        18        63        13        48        22        61        54        40        58        75        36        46        37        51        81        62        48        59        73        54        65        70        68        73        68        34        60        54        31        82        76        67        56        41        71        25        17        42        54        65        28        13        34        77        28        14        64        57        47        25        38        15        76        47        57        43        27        35        10000000        21        38        49        36        14        65        44        45        71        41         
 20        29        26        55        20        27        15        22        36        14        55        31        50        66        8        55        12        60        36        50        24        41        22        71        48        53        44        48        34        26        77        48        28        44        25        49        20        64        33        20        49        72        38        35        57        38        62        44        30        38        63        34        59        55        47        64        48        44        47        44        30        62        74        46        56        33        59        10        18        38        48        45        19        31        47        60        24        35        64        38        25        47        18        34        73        34        37        28        16        27        21        10000000        44        32        23        27        56        34        38        54        54         
 33        32        66        42        54        68        54        62        39        48        11        70        61        92        49        30        42        22        76        67        60        76        55        37        5        38        17        42        23        46        42        37        20        60        25        12        57        23        59        51        92        40        6        32        41        82        77        57        73        73        48        74        35        52        86        47        67        9        90        87        15        80        40        83        19        75        49        36        26        18        25        84        28        30        16        64        21        40        28        57        60        49        59        30        41        36        59        72        58        69        38        44        10000000        75        67        24        40        77        80        60        19         
 50        59        13        83        36        25        22        27        55        36        86        29        57        54        26        81        35        90        12        53        32        25        37        98        80        75        76        67        65        48        104        77        60        50        57        79        31        95        37        30        24        98        70        58        86        12        62        52        4        24        82        13        84        71        23        84        50        77        17        20        61        59        101        25        86        21        78        39        50        67        75        21        48        62        79        70        55        62        92        45        25        71        17        64        99        56        42        7        22        20        49        32        75        10000000        14        59        78        16        24        64        86         
 38        46        20        69        22        12        21        13        54        23        78        16        62        65        21        77        31        83        25        59        18        36        22        93        71        73        65        67        53        34        100        64        49        54        46        72        17        87        41        31        25        94        62        56        73        16        69        56        16        34        82        25        81        72        37        84        56        66        24        20        53        67        97        38        80        12        78        33        41        61        71        35        42        49        68        74        48        48        87        49        29        57        17        51        95        54        46        8        9        7        36        23        67        14        10000000        48        77        11        17        68        75         
 10        8        53        30        31        46        42        40        45        26        35        47        65        89        35        49        33        46        63        69        38        67        32        60        26        53        17        53        6        22        66        23        5        62        2        35        35        47        55        43        71        63        22        39        31        63        80        60        57        64        64        62        54        63        75        64        67        20        72        66        20        81        64        73        43        54        63        26        12        32        43        73        24        7        21        72        20        17        51        57        51        29        45        9        64        42        57        54        38        48        14        27        24        59        48        10000000        56        57        58        67        28         
 60        64        66        81        75        84        57        79        23        68        39        87        34        69        56        11        46        30        73        42        80        66        77        25        44        4        57        12        59        74        30        75        51        38        55        29        76        36        46        48        101        22        37        21        80        89        48        34        74        64        9        71        9        17        78        8        44        49        95        96        36        52        27        73        27        88        10        46        48        24        14        77        39        63        56        29        37        73        26        39        55        84        62        64        24        23        43        79        71        82        65        56        40        78        77        56        10000000        87        93        29        58         
 47        54        26        76        28        14        31        18        64        31        88        15        70        69        31        88        41        94        28        67        22        41        28        104        81        84        74        77        62        41        110        71        59        63        55        83        23        98        49        40        15        105        72        66        80        8        76        65        19        39        92        28        91        82        38        94        64        76        16        10        64        74        108        40        90        6        88        43        51        72        81        36        53        57        77        83        58        55        97        57        37        63        26        59        106        64        55        10        19        9        44        34        77        16        11        57        87        10000000        8        77        84         
 48        55        34        75        28        13        38        18        71        33        91        12        78        77        37        93        47        98        36        75        21        49        27        109        83        90        75        83        63        40        115        70        61        70        57        87        23        102        57        47        14        110        75        72        79        14        84        72        27        47        98        36        97        89        46        100        71        78        20        11        68        82        112        48        94        5        94        48        54        76        86        44        57        58        79        90        62        54        102        65        45        60        34        60        111        70        62        18        23        11        45        38        80        24        17        58        93        8        10000000        84        86         
 67        74        51        96        74        78        47        74        22        68        64        82        7        40        50        39        42        57        55        15        77        45        76        54        65        28        74        20        72        78        59        90        63        14        65        53        73        64        27        37        88        51        55        29        97        76        19        12        60        43        26        53        38        12        56        29        17        69        80        83        50        23        56        51        54        79        21        46        56        42        38        55        44        74        75        6        47        82        54        19        40        95        50        76        53        26        22        67        65        74        71        54        60        64        68        67        29        77        84        10000000        79         
 37        31        79        28        58        73        67        67        58        53        21        74        80        110        61        48        56        34        89        85        65        91        59        50        14        57        10        61        22        47        54        25        26        79        29        29        62        32        75        66        99        55        24        51        25        91        96        76        84        88        67        87        52        72        100        65        85        11        99        94        31        98        53        98        34        82        68        50        36        37        44        98        43        28        7        83        36        35        41        75        75        40        71        27        54        54        76        82        66        76        41        54        19        86        75        28        58        84        86        79        10000000         
 DEMAND_SECTION: 
 0   546   0 
 1   5   1 
 2   1   0 
 3   2   1 
 4   1   3 
 5   7   0 
 6   8   1 
 7   5   2 
 8   6   9 
 9   3   8 
 10   8   0 
 11   15   3 
 12   9   6 
 13   6   7 
 14   4   12 
 15   3   0 
 16   14   3 
 17   7   4 
 18   8   11 
 19   2   6 
 20   3   0 
 21   8   1 
 22   6   3 
 23   5   6 
 24   3   10 
 25   10   0 
 26   4   1 
 27   6   4 
 28   3   3 
 29   4   12 
 30   12   0 
 31   12   3 
 32   2   0 
 33   7   9 
 34   2   4 
 35   17   0 
 36   3   0 
 37   6   4 
 38   6   9 
 39   4   15 
 40   10   0 
 41   4   1 
 42   5   2 
 43   2   1 
 44   1   2 
 45   5   0 
 46   3   0 
 47   3   2 
 48   2   1 
 49   4   15 
 50   1   0 
 51   2   0 
 52   9   5 
 53   2   3 
 54   2   6 
 55   14   0 
 56   4   1 
 57   3   2 
 58   8   10 
 59   2   6 
 60   5   0 
 61   1   0 
 62   8   5 
 63   7   10 
 64   1   1 
 65   4   0 
 66   10   2 
 67   8   5 
 68   5   6 
 69   3   9 
 70   1   0 
 71   11   2 
 72   6   3 
 73   1   0 
 74   2   7 
 75   2   0 
 76   13   3 
 77   3   2 
 78   2   2 
 79   1   0 
 80   6   0 
 81   1   0 
 82   8   5 
 83   8   11 
 84   3   9 
 85   13   0 
 86   3   0 
 87   4   2 
 88   6   9 
 89   1   2 
 90   6   0 
 91   9   2 
 92   1   0 
 93   2   2 
 94   4   15 
 95   18   0 
 96   14   3 
 97   5   2 
 98   6   9 
 99   1   1 
 100   10   0 
 101   0   347 
