NAME: ..//instances//e_vigo//TSP_PD_vrp200_20_8_0.00.tspBeta0.000000 
COMMENT: TSPSimoultaneousPickUpandDelivery_2008 
TYPE: TSPDC 
DIMENSION: 22 
CAPACITY: 133 
EDGE_WEIGHT_TYPE: EXPLICIT 
EDGE_WEIGHT_FORMAT: FULL_MATRIX 
EDGE_WEIGHT_SECTION: 
10000000        52        18        63        12        65        28        25        93        4        38        72        10        62        49        38        41        78        88        57        65         
 52        10000000        56        87        40        14        27        64        85        48        66        80        52        11        77        15        78        81        52        74        65         
 18        56        10000000        45        22        68        29        8        78        18        20        55        29        64        30        46        24        62        82        39        49         
 63        87        45        10000000        64        94        63        39        54        62        25        24        73        90        15        82        26        33        86        14        34         
 12        40        22        64        10000000        53        16        30        87        8        39        69        17        49        50        27        46        74        77        56        59         
 65        14        68        94        53        10000000        39        75        83        61        75        84        66        4        85        29        88        83        43        80        68         
 28        27        29        63        16        39        10000000        37        76        24        40        62        33        35        51        19        51        66        61        52        50         
 25        64        8        39        30        75        37        10000000        77        25        16        52        35        72        24        54        16        59        86        36        48         
 93        85        78        54        87        83        76        77        10000000        91        63        30        103        81        61        90        74        21        51        45        29         
 4        48        18        62        8        61        24        25        91        10000000        37        70        12        58        48        34        42        76        84        56        62         
 38        66        20        25        39        75        40        16        63        37        10000000        36        49        71        11        59        15        44        78        20        34         
 72        80        55        24        69        84        62        52        30        70        36        10000000        82        81        32        80        45        9        67        16        16         
 10        52        29        73        17        66        33        35        103        12        49        82        10000000        63        59        38        51        89        94        68        74         
 62        11        64        90        49        4        35        72        81        58        71        81        63        10000000        82        26        84        81        43        77        66         
 49        77        30        15        50        85        51        24        61        48        11        32        59        82        10000000        70        13        41        84        16        35         
 38        15        46        82        27        29        19        54        90        34        59        80        38        26        70        10000000        69        83        64        71        66         
 41        78        24        26        46        88        51        16        74        42        15        45        51        84        13        69        10000000        54        92        29        47         
 78        81        62        33        74        83        66        59        21        76        44        9        89        81        41        83        54        10000000        62        25        16         
 88        52        82        86        77        43        61        86        51        84        78        67        94        43        84        64        92        62        10000000        72        53         
 57        74        39        14        56        80        52        36        45        56        20        16        68        77        16        71        29        25        72        10000000        20         
 65        65        49        34        59        68        50        48        29        62        34        16        74        66        35        66        47        16        53        20        10000000         
 DEMAND_SECTION: 
 0   133   0 
 1   8   2 
 2   10   6 
 3   8   11 
 4   1   3 
 5   19   0 
 6   8   1 
 7   2   1 
 8   3   4 
 9   3   8 
 10   1   0 
 11   5   1 
 12   5   2 
 13   4   5 
 14   1   3 
 15   11   0 
 16   14   3 
 17   9   6 
 18   8   11 
 19   2   6 
 20   11   0 
 21   0   73 
