NAME: ..//instances//e_vigo//TSP_PD_vrp200_20_6_0.00.tspBeta0.000000 
COMMENT: TSPSimoultaneousPickUpandDelivery_2008 
TYPE: TSPDC 
DIMENSION: 22 
CAPACITY: 138 
EDGE_WEIGHT_TYPE: EXPLICIT 
EDGE_WEIGHT_FORMAT: FULL_MATRIX 
EDGE_WEIGHT_SECTION: 
10000000        54        51        71        98        57        88        33        40        26        92        85        61        47        93        14        86        19        64        72        81         
 54        10000000        29        26        46        4        74        43        17        32        38        31        26        56        44        60        33        44        28        26        68         
 51        29        10000000        25        67        32        100        58        18        42        58        50        54        75        70        50        48        52        56        26        95         
 71        26        25        10000000        45        26        97        68        31        55        36        28        49        82        52        73        24        67        50        1        93         
 98        46        67        45        10000000        42        78        79        62        73        9        17        44        85        15        105        22        86        42        44        77         
 57        4        32        26        42        10000000        72        44        21        34        34        28        23        57        40        63        30        47        25        26        67         
 88        74        100        97        78        72        10000000        56        83        67        80        81        48        43        63        101        87        69        47        97        7         
 33        43        58        68        79        44        56        10000000        40        16        75        70        36        17        70        46        73        14        38        68        48         
 40        17        18        31        62        21        83        40        10000000        25        54        47        38        57        61        44        47        36        41        32        77         
 26        32        42        55        73        34        67        16        25        10000000        67        62        35        33        67        37        64        13        37        55        60         
 92        38        58        36        9        34        80        75        54        67        10000000        8        41        82        20        98        13        80        40        35        78         
 85        31        50        28        17        28        81        70        47        62        8        10000000        38        79        25        90        7        74        38        28        78         
 61        26        54        49        44        23        48        36        38        35        41        38        10000000        41        34        71        44        45        3        49        44         
 47        56        75        82        85        57        43        17        57        33        82        79        41        10000000        74        61        83        30        43        82        35         
 93        44        70        52        15        40        63        70        61        67        20        25        34        74        10000000        102        31        79        32        51        62         
 14        60        50        73        105        63        101        46        44        37        98        90        71        61        102        10000000        91        32        74        74        94         
 86        33        48        24        22        30        87        73        47        64        13        7        44        83        31        91        10000000        77        43        23        84         
 19        44        52        67        86        47        69        14        36        13        80        74        45        30        79        32        77        10000000        48        67        62         
 64        28        56        50        42        25        47        38        41        37        40        38        3        43        32        74        43        48        10000000        50        43         
 72        26        26        1        44        26        97        68        32        55        35        28        49        82        51        74        23        67        50        10000000        92         
 81        68        95        93        77        67        7        48        77        60        78        78        44        35        62        94        84        62        43        92        10000000         
 DEMAND_SECTION: 
 0   138   0 
 1   2   0 
 2   3   1 
 3   3   4 
 4   1   3 
 5   15   0 
 6   8   1 
 7   7   4 
 8   2   1 
 9   3   8 
 10   16   0 
 11   8   2 
 12   2   1 
 13   7   10 
 14   2   6 
 15   15   0 
 16   14   3 
 17   5   2 
 18   8   11 
 19   2   6 
 20   15   0 
 21   0   63 
