NAME: ..//instances//e_vigo//TSP_PD_vrp200_20_2_0.00.tspBeta0.000000 
COMMENT: TSPSimoultaneousPickUpandDelivery_2008 
TYPE: TSPDC 
DIMENSION: 22 
CAPACITY: 117 
EDGE_WEIGHT_TYPE: EXPLICIT 
EDGE_WEIGHT_FORMAT: FULL_MATRIX 
EDGE_WEIGHT_SECTION: 
10000000        9        46        34        21        36        35        30        45        16        45        38        64        85        28        55        28        54        56        67        28         
 9        10000000        55        26        27        42        44        37        52        23        42        43        72        94        37        57        37        53        65        74        34         
 46        55        10000000        80        37        32        12        31        43        35        76        35        45        46        18        69        25        79        10        41        36         
 34        26        80        10000000        48        63        70        58        73        47        48        63        95        119        63        72        62        61        90        98        54         
 21        27        37        48        10000000        15        31        10        55        7        65        17        70        82        25        72        32        74        45        69        7         
 36        42        32        63        15        10000000        31        6        62        20        79        4        72        77        28        82        38        86        37        70        9         
 35        44        12        70        31        31        10000000        28        34        27        65        35        41        51        7        58        13        68        22        39        32         
 30        37        31        58        10        6        28        10000000        58        14        73        9        69        76        24        77        33        81        38        67        5         
 45        52        43        73        55        62        34        58        10000000        49        45        66        22        54        34        28        24        42        50        28        59         
 16        23        35        47        7        20        27        14        49        10000000        59        22        64        78        21        65        26        67        44        65        13         
 45        42        76        48        65        79        65        73        45        59        10000000        81        66        98        60        28        52        13        86        72        72         
 38        43        35        63        17        4        35        9        66        22        81        10000000        76        81        32        86        41        89        40        74        10         
 64        72        45        95        70        72        41        69        22        64        66        76        10000000        35        45        43        38        61        48        8        72         
 85        94        46        119        82        77        51        76        54        78        98        81        35        10000000        58        78        57        95        41        27        81         
 28        37        18        63        25        28        7        24        34        21        60        32        45        58        10000000        57        10        64        28        44        27         
 55        57        69        72        72        82        58        77        28        65        28        86        43        78        57        10000000        47        18        77        51        78         
 28        37        25        62        32        38        13        33        24        26        52        41        38        57        10        47        10000000        55        34        39        35         
 54        53        79        61        74        86        68        81        42        67        13        89        61        95        64        18        55        10000000        88        68        80         
 56        65        10        90        45        37        22        38        50        44        86        40        48        41        28        77        34        88        10000000        43        42         
 67        74        41        98        69        70        39        67        28        65        72        74        8        27        44        51        39        68        43        10000000        71         
 28        34        36        54        7        9        32        5        59        13        72        10        72        81        27        78        35        80        42        71        10000000         
 DEMAND_SECTION: 
 0   117   0 
 1   5   1 
 2   1   0 
 3   2   1 
 4   1   3 
 5   7   0 
 6   8   1 
 7   5   2 
 8   6   9 
 9   3   8 
 10   8   0 
 11   15   3 
 12   9   6 
 13   6   7 
 14   4   12 
 15   3   0 
 16   14   3 
 17   7   4 
 18   8   11 
 19   2   6 
 20   3   0 
 21   0   77 
