NAME: ..//instances//e_vigo//TSP_PD_vrp200_20_7_0.00.tspBeta0.000000 
COMMENT: TSPSimoultaneousPickUpandDelivery_2008 
TYPE: TSPDC 
DIMENSION: 22 
CAPACITY: 144 
EDGE_WEIGHT_TYPE: EXPLICIT 
EDGE_WEIGHT_FORMAT: FULL_MATRIX 
EDGE_WEIGHT_SECTION: 
10000000        75        20        28        17        75        48        68        14        54        40        24        58        31        19        57        10        37        56        57        69         
 75        10000000        86        54        65        0        30        83        83        37        67        89        62        59        94        19        84        65        93        32        82         
 20        86        10000000        32        37        86        56        87        30        71        33        39        77        51        18        69        23        57        40        73        89         
 28        54        32        10000000        30        54        24        78        40        46        21        49        62        38        44        38        38        47        48        47        79         
 17        65        37        30        10000000        65        42        52        18        39        49        23        41        14        34        46        21        21        70        42        53         
 75        0        86        54        65        10000000        30        83        83        37        67        89        62        59        94        19        84        65        93        32        82         
 48        30        56        24        42        30        10000000        77        58        35        38        65        57        42        66        16        57        50        65        33        77         
 68        83        87        78        52        83        77        10000000        59        46        99        54        21        40        78        69        66        32        122        51        2         
 14        83        30        40        18        83        58        59        10000000        56        54        9        53        29        19        64        7        32        69        60        60         
 54        37        71        46        39        37        35        46        56        10000000        67        59        25        27        72        23        60        30        94        5        46         
 40        67        33        21        49        67        38        99        54        67        10000000        63        83        59        50        54        49        67        27        67        100         
 24        89        39        49        23        89        65        54        9        59        63        10000000        52        32        25        69        15        32        78        63        56         
 58        62        77        62        41        62        57        21        53        25        83        52        10000000        27        72        48        59        21        108        30        20         
 31        59        51        38        14        59        42        40        29        27        59        32        27        10000000        47        41        34        9        82        32        41         
 19        94        18        44        34        94        66        78        19        72        50        25        72        47        10000000        75        13        51        57        76        80         
 57        19        69        38        46        19        16        69        64        23        54        69        48        41        75        10000000        65        47        82        19        68         
 10        84        23        38        21        84        57        66        7        60        49        15        59        34        13        65        10000000        38        63        64        67         
 37        65        57        47        21        65        50        32        32        30        67        32        21        9        51        47        38        10000000        90        35        33         
 56        93        40        48        70        93        65        122        69        94        27        78        108        82        57        82        63        90        10000000        94        123         
 57        32        73        47        42        32        33        51        60        5        67        63        30        32        76        19        64        35        94        10000000        50         
 69        82        89        79        53        82        77        2        60        46        100        56        20        41        80        68        67        33        123        50        10000000         
 DEMAND_SECTION: 
 0   144   0 
 1   13   3 
 2   6   4 
 3   2   1 
 4   3   11 
 5   7   0 
 6   8   1 
 7   11   6 
 8   6   9 
 9   1   0 
 10   8   0 
 11   15   3 
 12   9   6 
 13   6   7 
 14   2   4 
 15   13   0 
 16   14   3 
 17   7   4 
 18   8   11 
 19   2   6 
 20   3   0 
 21   0   79 
