NAME: ..//instances//e_vigo//TSP_PD_vrp200_20_4_0.00.tspBeta0.000000 
COMMENT: TSPSimoultaneousPickUpandDelivery_2008 
TYPE: TSPDC 
DIMENSION: 22 
CAPACITY: 184 
EDGE_WEIGHT_TYPE: EXPLICIT 
EDGE_WEIGHT_FORMAT: FULL_MATRIX 
EDGE_WEIGHT_SECTION: 
10000000        50        56        40        31        58        34        69        17        56        76        44        23        54        29        24        39        40        8        60        35         
 50        10000000        8        90        45        24        81        20        38        52        30        91        68        4        72        74        11        89        44        32        61         
 56        8        10000000        96        53        18        88        13        46        50        22        98        73        5        80        80        19        96        50        38        69         
 40        90        96        10000000        60        97        17        109        54        86        115        16        32        94        28        18        79        9        47        95        50         
 31        45        53        60        10000000        64        45        64        17        77        75        54        54        49        34        51        36        55        25        36        17         
 58        24        18        97        64        10000000        92        23        52        34        20        102        69        23        85        79        29        99        54        56        79         
 34        81        88        17        45        92        10000000        101        43        87        109        10        36        86        12        23        70        10        38        81        34         
 69        20        13        109        64        23        101        10000000        58        57        13        111        85        16        92        93        31        109        63        43        81         
 17        38        46        54        17        52        43        58        10000000        60        67        53        40        42        34        40        27        52        9        43        28         
 56        52        50        86        77        34        87        57        60        10000000        52        96        55        53        85        68        50        91        57        83        88         
 76        30        22        115        75        20        109        13        67        52        10000000        119        89        27        101        98        40        116        70        57        92         
 44        91        98        16        54        102        10        111        53        96        119        10000000        43        95        21        29        80        7        48        90        42         
 23        68        73        32        54        69        36        85        40        55        89        43        10000000        72        39        14        57        37        31        82        54         
 54        4        5        94        49        23        86        16        42        53        27        95        72        10000000        77        78        16        94        48        33        65         
 29        72        80        28        34        85        12        92        34        85        101        21        39        77        10000000        28        61        22        31        70        22         
 24        74        80        18        51        79        23        93        40        68        98        29        14        78        28        10000000        63        23        32        83        47         
 39        11        19        79        36        29        70        31        27        50        40        80        57        16        61        63        10000000        78        32        33        52         
 40        89        96        9        55        99        10        109        52        91        116        7        37        94        22        23        78        10000000        46        91        44         
 8        44        50        47        25        54        38        63        9        57        70        48        31        48        31        32        32        46        10000000        52        32         
 60        32        38        95        36        56        81        43        43        83        57        90        82        33        70        83        33        91        52        10000000        51         
 35        61        69        50        17        79        34        81        28        88        92        42        54        65        22        47        52        44        32        51        10000000         
 DEMAND_SECTION: 
 0   184   0 
 1   12   2 
 2   8   4 
 3   6   9 
 4   1   3 
 5   11   0 
 6   8   1 
 7   12   7 
 8   8   11 
 9   3   8 
 10   12   0 
 11   12   2 
 12   12   7 
 13   2   3 
 14   3   9 
 15   19   0 
 16   14   3 
 17   12   7 
 18   8   11 
 19   2   6 
 20   19   0 
 21   0   93 
