NAME: ..//instances//e_vigo//TSP_PD_vrp200_20_9_0.00.tspBeta0.000000 
COMMENT: TSPSimoultaneousPickUpandDelivery_2008 
TYPE: TSPDC 
DIMENSION: 22 
CAPACITY: 152 
EDGE_WEIGHT_TYPE: EXPLICIT 
EDGE_WEIGHT_FORMAT: FULL_MATRIX 
EDGE_WEIGHT_SECTION: 
10000000        57        56        77        24        40        78        36        40        61        55        77        46        44        4        23        80        27        65        73        67         
 57        10000000        84        21        74        18        68        28        59        89        30        20        35        77        61        47        70        34        81        52        18         
 56        84        10000000        94        75        69        48        80        25        5        100        96        50        12        54        42        49        73        16        57        81         
 77        21        94        10000000        95        37        67        50        70        98        48        4        44        89        80        63        68        56        87        49        13         
 24        74        75        95        10000000        59        102        48        63        79        63        94        69        63        23        47        104        40        86        97        87         
 40        18        69        37        59        10000000        63        19        44        74        33        37        25        61        43        30        65        21        68        50        29         
 78        68        48        67        102        63        10000000        81        40        49        95        70        38        52        79        55        2        79        33        18        56         
 36        28        80        50        48        19        81        10000000        57        85        20        48        43        70        40        38        83        9        83        69        44         
 40        59        25        70        63        44        40        57        10000000        30        75        72        25        19        40        20        42        51        27        42        57         
 61        89        5        98        79        74        49        85        30        10000000        105        100        54        17        59        47        50        78        17        60        85         
 55        30        100        48        63        33        95        20        75        105        10000000        45        58        90        59        58        97        29        101        81        48         
 77        20        96        4        94        37        70        48        72        100        45        10000000        46        91        80        64        72        55        90        53        15         
 46        35        50        44        69        25        38        43        25        54        58        46        10000000        45        48        24        40        41        45        28        32         
 44        77        12        89        63        61        52        70        19        17        90        91        45        10000000        42        32        53        62        25        58        76         
 4        61        54        80        23        43        79        40        40        59        59        80        48        42        10000000        24        81        31        64        75        70         
 23        47        42        63        47        30        55        38        20        47        58        64        24        32        24        10000000        57        31        46        51        51         
 80        70        49        68        104        65        2        83        42        50        97        72        40        53        81        57        10000000        81        34        19        57         
 27        34        73        56        40        21        79        9        51        78        29        55        41        62        31        31        81        10000000        77        69        49         
 65        81        16        87        86        68        33        83        27        17        101        90        45        25        64        46        34        77        10000000        45        75         
 73        52        57        49        97        50        18        69        42        60        81        53        28        58        75        51        19        69        45        10000000        39         
 67        18        81        13        87        29        56        44        57        85        48        15        32        76        70        51        57        49        75        39        10000000         
 DEMAND_SECTION: 
 0   152   0 
 1   4   0 
 2   2   0 
 3   6   9 
 4   3   11 
 5   11   0 
 6   8   1 
 7   6   3 
 8   8   11 
 9   1   0 
 10   12   0 
 11   12   2 
 12   12   7 
 13   2   3 
 14   1   1 
 15   9   0 
 16   14   3 
 17   12   7 
 18   8   11 
 19   2   6 
 20   19   0 
 21   0   75 
