NAME: ..//instances//e_vigo//TSP_PD_vrp200_20_1_0.00.tspBeta0.000000 
COMMENT: TSPSimoultaneousPickUpandDelivery_2008 
TYPE: TSPDC 
DIMENSION: 22 
CAPACITY: 138 
EDGE_WEIGHT_TYPE: EXPLICIT 
EDGE_WEIGHT_FORMAT: FULL_MATRIX 
EDGE_WEIGHT_SECTION: 
10000000        23        87        66        73        69        18        64        34        43        104        81        47        22        99        72        87        90        91        54        80         
 23        10000000        72        49        53        65        36        42        27        20        85        68        52        25        80        72        68        70        74        31        61         
 87        72        10000000        24        91        39        85        42        53        71        24        12        65        97        26        52        18        28        10        68        99         
 66        49        24        10000000        71        39        67        22        34        47        38        24        54        73        35        52        22        28        26        46        79         
 73        53        91        71        10000000        105        89        49        73        34        90        94        102        59        82        115        77        71        86        27        9         
 69        65        39        39        105        10000000        60        59        38        74        63        27        30        86        64        14        53        63        49        78        113         
 18        36        85        67        89        60        10000000        70        33        57        105        76        32        40        102        59        89        94        91        67        97         
 64        42        42        22        49        59        70        10000000        40        31        47        45        67        64        40        72        31        29        39        26        57         
 34        27        53        34        73        38        33        40        10000000        40        72        46        30        48        68        45        56        61        58        46        81         
 43        20        71        47        34        74        57        31        40        10000000        78        70        69        36        72        84        62        61        70        11        42         
 104        85        24        38        90        63        105        47        72        78        10000000        36        88        110        8        76        17        19        15        72        97         
 81        68        12        24        94        27        76        45        46        70        36        10000000        54        92        38        40        28        38        22        69        103         
 47        52        65        54        102        30        32        67        30        69        88        54        10000000        67        87        27        74        82        73        76        111         
 22        25        97        73        59        86        40        64        48        36        110        92        67        10000000        104        91        93        94        99        47        64         
 99        80        26        35        82        64        102        40        68        72        8        38        87        104        10000000        78        13        11        16        65        89         
 72        72        52        52        115        14        59        72        45        84        76        40        27        91        78        10000000        66        77        62        88        124         
 87        68        18        22        77        53        89        31        56        62        17        28        74        93        13        66        10000000        11        9        57        85         
 90        70        28        28        71        63        94        29        61        61        19        38        82        94        11        77        11        10000000        19        54        78         
 91        74        10        26        86        49        91        39        58        70        15        22        73        99        16        62        9        19        10000000        65        94         
 54        31        68        46        27        78        67        26        46        11        72        69        76        47        65        88        57        54        65        10000000        36         
 80        61        99        79        9        113        97        57        81        42        97        103        111        64        89        124        85        78        94        36        10000000         
 DEMAND_SECTION: 
 0   138   0 
 1   10   2 
 2   9   5 
 3   3   4 
 4   3   11 
 5   15   0 
 6   8   1 
 7   1   0 
 8   2   1 
 9   1   0 
 10   16   0 
 11   8   2 
 12   2   1 
 13   7   10 
 14   4   14 
 15   5   0 
 16   14   3 
 17   5   2 
 18   8   11 
 19   2   6 
 20   15   0 
 21   0   73 
