NAME: ..//instances//e_vigo//TSP_PD_vrp200_20_10_0.00.tspBeta0.000000 
COMMENT: TSPSimoultaneousPickUpandDelivery_2008 
TYPE: TSPDC 
DIMENSION: 22 
CAPACITY: 109 
EDGE_WEIGHT_TYPE: EXPLICIT 
EDGE_WEIGHT_FORMAT: FULL_MATRIX 
EDGE_WEIGHT_SECTION: 
10000000        57        30        89        62        47        38        64        36        34        29        80        83        59        65        78        52        25        30        60        42         
 57        10000000        59        32        25        72        20        16        45        43        49        32        26        58        34        22        35        43        30        45        32         
 30        59        10000000        90        74        77        46        71        16        17        55        89        83        32        81        81        36        48        30        81        30         
 89        32        90        10000000        38        96        51        29        75        73        77        26        7        81        46        11        59        73        62        61        60         
 62        25        74        38        10000000        58        28        11        64        61        42        19        35        81        10        28        58        40        44        23        52         
 47        72        77        96        58        10000000        55        67        78        76        25        76        92        102        54        85        88        33        62        40        77         
 38        20        46        51        28        55        10000000        26        36        34        31        44        45        56        35        40        36        24        16        39        27         
 64        16        71        29        11        67        26        10000000        59        57        48        18        25        74        21        18        50        44        41        34        46         
 36        45        16        75        64        78        36        59        10000000        3        54        77        67        24        71        66        20        46        21        74        14         
 34        43        17        73        61        76        34        57        3        10000000        51        75        66        26        68        64        20        43        18        72        13         
 29        49        55        77        42        25        31        48        54        51        10000000        61        72        78        41        66        63        8        37        33        52         
 80        32        89        26        19        76        44        18        77        75        61        10000000        26        90        22        20        67        59        59        37        64         
 83        26        83        7        35        92        45        25        67        66        72        26        10000000        75        43        7        52        67        55        58        53         
 59        58        32        81        81        102        56        74        24        26        78        90        75        10000000        89        75        23        69        42        95        29         
 65        34        81        46        10        54        35        21        71        68        41        22        43        89        10000000        36        67        41        51        15        61         
 78        22        81        11        28        85        40        18        66        64        66        20        7        75        36        10000000        52        62        52        51        52         
 52        35        36        59        58        88        36        50        20        20        63        67        52        23        67        52        10000000        54        26        74        11         
 25        43        48        73        40        33        24        44        46        43        8        59        67        69        41        62        54        10000000        28        36        44         
 30        30        30        62        44        62        16        41        21        18        37        59        55        42        51        52        26        28        10000000        54        15         
 60        45        81        61        23        40        39        34        74        72        33        37        58        95        15        51        74        36        54        10000000        66         
 42        32        30        60        52        77        27        46        14        13        52        64        53        29        61        52        11        44        15        66        10000000         
 DEMAND_SECTION: 
 0   109   0 
 1   15   3 
 2   5   3 
 3   5   6 
 4   1   3 
 5   3   0 
 6   8   1 
 7   9   6 
 8   5   6 
 9   3   8 
 10   4   0 
 11   2   0 
 12   7   4 
 13   1   0 
 14   1   0 
 15   7   0 
 16   14   3 
 17   2   1 
 18   8   11 
 19   2   6 
 20   7   0 
 21   0   61 
