NAME: ..//instances//e_vigo//TSP_PD_vrp200_20_3_0.00.tspBeta0.000000 
COMMENT: TSPSimoultaneousPickUpandDelivery_2008 
TYPE: TSPDC 
DIMENSION: 22 
CAPACITY: 118 
EDGE_WEIGHT_TYPE: EXPLICIT 
EDGE_WEIGHT_FORMAT: FULL_MATRIX 
EDGE_WEIGHT_SECTION: 
10000000        85        59        93        11        74        89        87        56        57        16        43        17        7        64        45        99        4        96        86        23         
 85        10000000        26        63        82        98        77        53        29        93        74        85        81        79        107        59        19        86        94        90        69         
 59        26        10000000        61        56        81        69        51        3        72        48        63        55        52        87        37        41        60        85        79        43         
 93        63        61        10000000        84        54        19        10        62        60        93        63        79        86        72        49        55        92        36        36        70         
 11        82        56        84        10000000        63        79        78        53        46        22        32        6        7        54        36        94        8        85        76        15         
 74        98        81        54        63        10000000        36        56        81        18        82        31        57        69        21        45        98        71        29        21        57         
 89        77        69        19        79        36        10000000        25        70        46        91        52        73        82        56        46        72        87        17        17        67         
 87        53        51        10        78        56        25        10000000        53        60        85        60        74        80        73        43        47        86        43        41        64         
 56        29        3        62        53        81        70        53        10000000        71        45        61        53        50        85        36        44        57        85        79        40         
 57        93        72        60        46        18        46        60        71        10000000        66        14        40        52        14        35        97        53        45        35        42         
 16        74        48        93        22        82        91        85        45        66        10000000        52        27        15        76        45        89        19        101        92        26         
 43        85        63        63        32        31        52        60        61        14        52        10000000        26        38        25        26        92        40        55        45        28         
 17        81        55        79        6        57        73        74        53        40        27        26        10000000        13        48        31        92        14        79        70        13         
 7        79        52        86        7        69        82        80        50        52        15        38        13        10000000        61        38        92        8        90        81        16         
 64        107        87        72        54        21        56        73        85        14        76        25        48        61        10000000        49        111        60        50        42        53         
 45        59        37        49        36        45        46        43        36        35        45        26        31        38        49        10000000        66        43        57        48        22         
 99        19        41        55        94        98        72        47        44        97        89        92        92        92        111        66        10000000        100        89        87        80         
 4        86        60        92        8        71        87        86        57        53        19        40        14        8        60        43        100        10000000        93        84        22         
 96        94        85        36        85        29        17        43        85        45        101        55        79        90        50        57        89        93        10000000        9        75         
 86        90        79        36        76        21        17        41        79        35        92        45        70        81        42        48        87        84        9        10000000        66         
 23        69        43        70        15        57        67        64        40        42        26        28        13        16        53        22        80        22        75        66        10000000         
 DEMAND_SECTION: 
 0   118   0 
 1   1   0 
 2   4   2 
 3   8   11 
 4   3   11 
 5   19   0 
 6   8   1 
 7   8   5 
 8   3   4 
 9   1   0 
 10   1   0 
 11   5   1 
 12   5   2 
 13   4   5 
 14   3   11 
 15   1   0 
 16   14   3 
 17   9   6 
 18   8   11 
 19   2   6 
 20   11   0 
 21   0   79 
