NAME: ..//instances//e_vigo//TSP_PD_vrp200_20_5_0.00.tspBeta0.000000 
COMMENT: TSPSimoultaneousPickUpandDelivery_2008 
TYPE: TSPDC 
DIMENSION: 22 
CAPACITY: 112 
EDGE_WEIGHT_TYPE: EXPLICIT 
EDGE_WEIGHT_FORMAT: FULL_MATRIX 
EDGE_WEIGHT_SECTION: 
10000000        71        22        41        39        53        75        27        47        74        16        31        72        26        37        63        59        71        48        51        34         
 71        10000000        93        32        69        18        8        60        54        48        87        44        28        57        66        38        14        40        71        62        49         
 22        93        10000000        63        52        75        97        42        65        93        6        52        93        42        51        83        81        91        61        67        54         
 41        32        63        10000000        40        16        34        40        29        42        58        13        32        36        37        28        23        36        44        38        18         
 39        69        52        40        10000000        55        68        59        18        46        50        30        54        56        3        40        63        47        9        15        21         
 53        18        75        16        55        10000000        23        43        43        48        69        28        32        40        52        34        8        40        59        52        34         
 75        8        97        34        68        23        10000000        66        52        43        91        47        22        63        66        34        21        35        69        60        50         
 27        60        42        40        59        43        66        10000000        60        80        36        36        72        4        56        67        46        75        67        67        44         
 47        54        65        29        18        43        52        60        10000000        28        61        24        36        57        17        22        51        29        17        9        16         
 74        48        93        42        46        48        43        80        28        10000000        89        45        21        77        45        14        53        8        41        31        40         
 16        87        6        58        50        69        91        36        61        89        10000000        47        88        36        48        78        74        87        59        64        49         
 31        44        52        13        30        28        47        36        24        45        47        10000000        41        33        26        33        35        41        35        32        9         
 72        28        93        32        54        32        22        72        36        21        88        41        10000000        68        53        14        35        13        53        43        40         
 26        57        42        36        56        40        63        4        57        77        36        33        68        10000000        53        63        43        72        64        63        41         
 37        66        51        37        3        52        66        56        17        45        48        26        53        53        10000000        39        60        46        11        16        18         
 63        38        83        28        40        34        34        67        22        14        78        33        14        63        39        10000000        40        9        39        29        29         
 59        14        81        23        63        8        21        46        51        53        74        35        35        43        60        40        10000000        45        67        60        42         
 71        40        91        36        47        40        35        75        29        8        87        41        13        72        46        9        45        10000000        44        34        38         
 48        71        61        44        9        59        69        67        17        41        59        35        53        64        11        39        67        44        10000000        10        27         
 51        62        67        38        15        52        60        67        9        31        64        32        43        63        16        29        60        34        10        10000000        23         
 34        49        54        18        21        34        50        44        16        40        49        9        40        41        18        29        42        38        27        23        10000000         
 DEMAND_SECTION: 
 0   112   0 
 1   7   1 
 2   11   7 
 3   5   6 
 4   3   11 
 5   3   0 
 6   8   1 
 7   3   2 
 8   5   6 
 9   1   0 
 10   4   0 
 11   2   0 
 12   7   4 
 13   1   0 
 14   2   8 
 15   17   0 
 16   14   3 
 17   2   1 
 18   8   11 
 19   2   6 
 20   7   0 
 21   0   67 
