NAME: ..//instances//e_vigo//TSP_PD_vrp200_40_5_0.00.tspBeta0.000000 
COMMENT: TSPSimoultaneousPickUpandDelivery_2008 
TYPE: TSPDC 
DIMENSION: 42 
CAPACITY: 231 
EDGE_WEIGHT_TYPE: EXPLICIT 
EDGE_WEIGHT_FORMAT: FULL_MATRIX 
EDGE_WEIGHT_SECTION: 
10000000        71        22        41        39        53        75        27        47        74        16        31        72        26        37        63        59        71        48        51        34        17        30        15        8        52        28        50        38        47        86        28        85        16        29        66        62        60        73        39        77         
 71        10000000        93        32        69        18        8        60        54        48        87        44        28        57        66        38        14        40        71        62        49        76        53        69        64        42        66        35        34        37        37        46        49        84        85        16        44        11        18        48        27         
 22        93        10000000        63        52        75        97        42        65        93        6        52        93        42        51        83        81        91        61        67        54        27        47        29        29        72        40        71        60        66        106        49        103        17        32        88        81        82        95        58        99         
 41        32        63        10000000        40        16        34        40        29        42        58        13        32        36        37        28        23        36        44        38        18        44        34        43        34        22        46        15        16        30        59        23        64        52        54        33        31        22        32        20        37         
 39        69        52        40        10000000        55        68        59        18        46        50        30        54        56        3        40        63        47        9        15        21        25        57        52        33        30        63        35        50        65        98        48        103        35        24        73        36        62        61        21        60         
 53        18        75        16        55        10000000        23        43        43        48        69        28        32        40        52        34        8        40        59        52        34        59        36        51        47        33        50        25        17        24        44        28        51        66        69        18        39        7        26        35        34         
 75        8        97        34        68        23        10000000        66        52        43        91        47        22        63        66        34        21        35        69        60        50        78        59        74        68        40        72        34        40        44        44        51        57        86        87        24        40        17        11        48        20         
 27        60        42        40        59        43        66        10000000        60        80        36        36        72        4        56        67        46        75        67        67        44        43        7        14        28        59        6        54        27        26        65        17        61        43        56        50        69        49        69        49        76         
 47        54        65        29        18        43        52        60        10000000        28        61        24        36        57        17        22        51        29        17        9        16        39        56        57        40        13        66        19        43        58        86        46        93        49        41        61        18        48        44        11        42         
 74        48        93        42        46        48        43        80        28        10000000        89        45        21        77        45        14        53        8        41        31        40        67        75        81        66        22        87        27        57        70        86        64        96        77        70        61        12        49        31        35        24         
 16        87        6        58        50        69        91        36        61        89        10000000        47        88        36        48        78        74        87        59        64        49        24        41        22        24        68        35        66        53        60        100        43        97        16        32        81        77        76        90        54        94         
 31        44        52        13        30        28        47        36        24        45        47        10000000        41        33        26        33        35        41        35        32        9        32        32        36        23        23        42        20        21        36        69        21        74        40        41        45        33        35        43        13        47         
 72        28        93        32        54        32        22        72        36        21        88        41        10000000        68        53        14        35        13        53        43        40        70        65        76        64        24        78        22        45        56        65        55        77        80        76        42        20        31        11        37        6         
 26        57        42        36        56        40        63        4        57        77        36        33        68        10000000        53        63        43        72        64        63        41        41        5        14        26        56        10        50        24        24        64        13        61        42        54        48        65        46        66        46        72         
 37        66        51        37        3        52        66        56        17        45        48        26        53        53        10000000        39        60        46        11        16        18        24        54        50        30        28        60        33        47        62        95        45        100        34        25        70        35        59        59        18        59         
 63        38        83        28        40        34        34        67        22        14        78        33        14        63        39        10000000        40        9        39        29        29        58        61        69        55        11        73        13        43        56        74        50        84        68        63        49        6        36        23        25        20         
 59        14        81        23        63        8        21        46        51        53        74        35        35        43        60        40        10000000        45        67        60        42        66        39        55        53        40        52        32        21        23        36        32        44        72        76        10        46        4        28        43        37         
 71        40        91        36        47        40        35        75        29        8        87        41        13        72        46        9        45        10000000        44        34        38        66        69        77        63        19        82        22        51        63        77        58        88        77        70        53        11        41        23        33        17         
 48        71        61        44        9        59        69        67        17        41        59        35        53        64        11        39        67        44        10000000        10        27        34        65        61        42        30        72        36        56        71        102        55        108        44        31        77        33        65        61        24        59         
 51        62        67        38        15        52        60        67        9        31        64        32        43        63        16        29        60        34        10        10000000        23        40        64        63        44        21        72        28        52        67        95        53        102        50        40        69        23        57        51        19        49         
 34        49        54        18        21        34        50        44        16        40        49        9        40        41        18        29        42        38        27        23        10000000        30        41        42        26        18        50        18        29        45        77        30        82        40        37        52        28        41        44        5        46         
 17        76        27        44        25        59        78        43        39        67        24        32        70        41        24        58        66        66        34        40        30        10000000        44        32        16        47        45        48        47        59        97        40        98        10        13        75        56        66        74        34        76         
 30        53        47        34        57        36        59        7        56        75        41        32        65        5        54        61        39        69        65        64        41        44        10000000        19        29        54        13        48        20        19        59        11        56        46        57        43        64        42        62        45        69         
 15        69        29        43        52        51        74        14        57        81        22        36        76        14        50        69        55        77        61        63        42        32        19        10000000        19        59        13        55        35        38        77        23        74        30        44        61        69        58        75        47        81         
 8        64        29        34        33        47        68        28        40        66        24        23        64        26        30        55        53        63        42        44        26        16        29        19        10000000        44        31        42        33        43        82        24        83        20        28        61        54        54        66        31        70         
 52        42        72        22        30        33        40        59        13        22        68        23        24        56        28        11        40        19        30        21        18        47        54        59        44        10000000        65        8        38        52        76        43        84        57        52        50        10        38        31        14        30         
 28        66        40        46        63        50        72        6        66        87        35        42        78        10        60        73        52        82        72        72        50        45        13        13        31        65        10000000        60        33        31        68        23        64        44        58        56        75        55        75        55        82         
 50        35        71        15        35        25        34        54        19        27        66        20        22        50        33        13        32        22        36        28        18        48        48        55        42        8        60        10000000        30        44        68        37        76        58        55        42        16        30        27        15        28         
 38        34        60        16        50        17        40        27        43        57        53        21        45        24        47        43        21        51        56        52        29        47        20        35        33        38        33        30        10000000        15        50        11        53        52        58        28        46        23        42        33        49         
 47        37        66        30        65        24        44        26        58        70        60        36        56        24        62        56        23        63        71        67        45        59        19        38        43        52        31        44        15        10000000        40        19        40        62        71        25        60        27        50        48        58         
 86        37        106        59        98        44        44        65        86        86        100        69        65        64        95        74        36        77        102        95        77        97        59        77        82        76        68        68        50        40        10000000        58        15        102        109        26        80        38        55        78        64         
 28        46        49        23        48        28        51        17        46        64        43        21        55        13        45        50        32        58        55        53        30        40        11        23        24        43        23        37        11        19        58        10000000        59        44        52        39        52        34        52        34        59         
 85        49        103        64        103        51        57        61        93        96        97        74        77        61        100        84        44        88        108        102        82        98        56        74        83        84        64        76        53        40        15        59        10000000        102        110        35        89        48        67        84        76         
 16        84        17        52        35        66        86        43        49        77        16        40        80        42        34        68        72        77        44        50        40        10        46        30        20        57        44        58        52        62        102        44        102        10000000        16        81        66        73        83        43        86         
 29        85        32        54        24        69        87        56        41        70        32        41        76        54        25        63        76        70        31        40        37        13        57        44        28        52        58        55        58        71        109        52        110        16        10000000        85        59        76        81        39        82         
 66        16        88        33        73        18        24        50        61        61        81        45        42        48        70        49        10        53        77        69        52        75        43        61        61        50        56        42        28        25        26        39        35        81        85        10000000        55        13        33        53        42         
 62        44        81        31        36        39        40        69        18        12        77        33        20        65        35        6        46        11        33        23        28        56        64        69        54        10        75        16        46        60        80        52        89        66        59        55        10000000        42        30        23        26         
 60        11        82        22        62        7        17        49        48        49        76        35        31        46        59        36        4        41        65        57        41        66        42        58        54        38        55        30        23        27        38        34        48        73        76        13        42        10000000        23        41        32         
 73        18        95        32        61        26        11        69        44        31        90        43        11        66        59        23        28        23        61        51        44        74        62        75        66        31        75        27        42        50        55        52        67        83        81        33        30        23        10000000        42        9         
 39        48        58        20        21        35        48        49        11        35        54        13        37        46        18        25        43        33        24        19        5        34        45        47        31        14        55        15        33        48        78        34        84        43        39        53        23        41        42        10000000        43         
 77        27        99        37        60        34        20        76        42        24        94        47        6        72        59        20        37        17        59        49        46        76        69        81        70        30        82        28        49        58        64        59        76        86        82        42        26        32        9        43        10000000         
 DEMAND_SECTION: 
 0   231   0 
 1   7   1 
 2   11   7 
 3   5   6 
 4   3   11 
 5   3   0 
 6   8   1 
 7   3   2 
 8   5   6 
 9   1   0 
 10   4   0 
 11   2   0 
 12   7   4 
 13   1   0 
 14   2   8 
 15   17   0 
 16   14   3 
 17   2   1 
 18   8   11 
 19   2   6 
 20   7   0 
 21   4   1 
 22   2   1 
 23   1   0 
 24   3   10 
 25   12   0 
 26   4   1 
 27   3   1 
 28   1   0 
 29   2   6 
 30   10   0 
 31   16   3 
 32   9   5 
 33   8   10 
 34   4   12 
 35   19   0 
 36   4   1 
 37   10   6 
 38   2   1 
 39   1   4 
 40   4   0 
 41   0   129 
