NAME: ..//instances//e_vigo//TSP_PD_vrp200_40_7_0.00.tspBeta0.000000 
COMMENT: TSPSimoultaneousPickUpandDelivery_2008 
TYPE: TSPDC 
DIMENSION: 42 
CAPACITY: 236 
EDGE_WEIGHT_TYPE: EXPLICIT 
EDGE_WEIGHT_FORMAT: FULL_MATRIX 
EDGE_WEIGHT_SECTION: 
10000000        75        20        28        17        75        48        68        14        54        40        24        58        31        19        57        10        37        56        57        69        47        64        66        55        62        41        76        35        14        33        41        57        13        41        45        37        7        49        40        20         
 75        10000000        86        54        65        0        30        83        83        37        67        89        62        59        94        19        84        65        93        32        82        36        71        57        87        50        80        9        85        66        51        55        31        65        72        61        81        79        94        75        56         
 20        86        10000000        32        37        86        56        87        30        71        33        39        77        51        18        69        23        57        40        73        89        52        84        85        41        81        27        88        19        20        36        39        62        22        31        65        56        24        31        60        30         
 28        54        32        10000000        30        54        24        78        40        46        21        49        62        38        44        38        38        47        48        47        79        21        71        66        43        60        31        57        33        14        5        16        30        15        26        51        55        34        45        55        9         
 17        65        37        30        10000000        65        42        52        18        39        49        23        41        14        34        46        21        21        70        42        53        45        47        48        68        45        54        64        50        23        35        46        54        20        52        28        25        16        64        26        21         
 75        0        86        54        65        10000000        30        83        83        37        67        89        62        59        94        19        84        65        93        32        82        36        71        57        87        50        80        9        85        66        51        55        31        65        72        61        81        79        94        75        56         
 48        30        56        24        42        30        10000000        77        58        35        38        65        57        42        66        16        57        50        65        33        77        9        67        58        60        50        51        34        55        37        21        27        13        36        43        50        63        53        65        60        28         
 68        83        87        78        52        83        77        10000000        59        46        99        54        21        40        78        69        66        32        122        51        2        85        12        27        120        33        106        76        102        75        82        94        90        72        103        28        33        64        116        28        70         
 14        83        30        40        18        83        58        59        10000000        56        54        9        53        29        19        64        7        32        69        60        60        59        58        62        69        60        55        82        48        28        46        55        68        26        55        41        26        7        61        31        32         
 54        37        71        46        39        37        35        46        56        10000000        67        59        25        27        72        23        60        30        94        5        46        44        35        23        90        16        78        32        78        52        47        58        47        49        72        24        46        55        91        39        42         
 40        67        33        21        49        67        38        99        54        67        10000000        63        83        59        50        54        49        67        27        67        100        30        92        87        22        81        14        72        21        27        20        11        37        30        5        72        73        47        27        74        29         
 24        89        39        49        23        89        65        54        9        59        63        10000000        52        32        25        69        15        32        78        63        56        67        55        62        78        61        64        87        57        37        54        64        76        35        65        41        21        16        70        28        40         
 58        62        77        62        41        62        57        21        53        25        83        52        10000000        27        72        48        59        21        108        30        20        66        10        10        105        13        91        56        89        62        64        76        70        58        87        12        32        55        103        25        55         
 31        59        51        38        14        59        42        40        29        27        59        32        27        10000000        47        41        34        9        82        32        41        48        34        34        79        31        66        57        63        36        42        54        55        32        62        14        22        30        77        18        30         
 19        94        18        44        34        94        66        78        19        72        50        25        72        47        10000000        75        13        51        57        76        80        64        77        81        58        78        45        95        37        29        49        54        74        30        49        60        45        17        48        51        38         
 57        19        69        38        46        19        16        69        64        23        54        69        48        41        75        10000000        65        47        82        19        68        26        58        46        76        38        67        20        70        49        36        44        25        47        59        44        62        60        81        57        38         
 10        84        23        38        21        84        57        66        7        60        49        15        59        34        13        65        10000000        38        63        64        67        58        64        68        63        65        48        84        42        24        43        51        67        23        50        47        33        5        54        38        30         
 37        65        57        47        21        65        50        32        32        30        67        32        21        9        51        47        38        10000000        90        35        33        57        27        30        88        29        74        61        71        43        51        63        64        40        71        9        16        35        84        10        38         
 56        93        40        48        70        93        65        122        69        94        27        78        108        82        57        82        63        90        10000000        94        123        57        116        113        7        107        17        99        21        47        47        38        62        50        23        96        93        62        10        95        53         
 57        32        73        47        42        32        33        51        60        5        67        63        30        32        76        19        64        35        94        10000000        50        42        39        27        90        19        78        27        80        54        47        58        44        51        72        29        51        59        92        45        44         
 69        82        89        79        53        82        77        2        60        46        100        56        20        41        80        68        67        33        123        50        10000000        85        11        25        120        32        106        75        103        76        82        94        90        72        103        28        35        65        117        29        71         
 47        36        52        21        45        36        9        85        59        44        30        67        66        48        64        26        58        57        57        42        85        10000000        75        67        51        59        44        42        49        35        16        19        9        35        35        57        68        53        58        66        27         
 64        71        84        71        47        71        67        12        58        35        92        55        10        34        77        58        64        27        116        39        11        75        10000000        15        113        21        100        64        97        70        74        86        80        66        96        20        34        61        111        27        63         
 66        57        85        66        48        57        58        27        62        23        87        62        10        34        81        46        68        30        113        27        25        67        15        10000000        109        8        97        50        96        68        68        80        70        65        92        21        43        64        109        35        60         
 55        87        41        43        68        87        60        120        69        90        22        78        105        79        58        76        63        88        7        90        120        51        113        109        10000000        103        14        93        22        45        42        33        56        48        18        93        91        62        14        94        50         
 62        50        81        60        45        50        50        33        60        16        81        61        13        31        78        38        65        29        107        19        32        59        21        8        103        10000000        91        43        90        63        62        73        63        60        85        20        43        61        103        36        54         
 41        80        27        31        54        80        51        106        55        78        14        64        91        66        45        67        48        74        17        78        106        44        100        97        14        91        10000000        85        9        30        31        25        50        34        9        80        77        47        14        79        37         
 76        9        88        57        64        9        34        76        82        32        72        87        56        57        95        20        84        61        99        27        75        42        64        50        93        43        85        10000000        89        69        55        61        38        67        77        56        77        79        99        71        58         
 35        85        19        33        50        85        55        102        48        78        21        57        89        63        37        70        42        71        21        80        103        49        97        96        22        90        9        89        10000000        28        34        31        56        31        17        77        72        41        14        75        36         
 14        66        20        14        23        66        37        75        28        52        27        37        62        36        29        49        24        43        47        54        76        35        70        68        45        63        30        69        28        10000000        19        27        44        4        29        50        47        21        41        49        10         
 33        51        36        5        35        51        21        82        46        47        20        54        64        42        49        36        43        51        47        47        82        16        74        68        42        62        31        55        34        19        10000000        12        25        20        24        54        59        39        45        59        14         
 41        55        39        16        46        55        27        94        55        58        11        64        76        54        54        44        51        63        38        58        94        19        86        80        33        73        25        61        31        27        12        10000000        26        29        16        66        71        48        39        71        25         
 57        31        62        30        54        31        13        90        68        47        37        76        70        55        74        25        67        64        62        44        90        9        80        70        56        63        50        38        56        44        25        26        10000000        44        41        63        76        63        64        73        37         
 13        65        22        15        20        65        36        72        26        49        30        35        58        32        30        47        23        40        50        51        72        35        66        65        48        60        34        67        31        4        20        29        44        10000000        32        46        44        19        45        45        9         
 41        72        31        26        52        72        43        103        55        72        5        65        87        62        49        59        50        71        23        72        103        35        96        92        18        85        9        77        17        29        24        16        41        32        10000000        76        76        48        23        77        33         
 45        61        65        51        28        61        50        28        41        24        72        41        12        14        60        44        47        9        96        29        28        57        20        21        93        20        80        56        77        50        54        66        63        46        76        10000000        23        43        91        16        43         
 37        81        56        55        25        81        63        33        26        46        73        21        32        22        45        62        33        16        93        51        35        68        34        43        91        43        77        77        72        47        59        71        76        44        76        23        10000000        31        86        8        46         
 7        79        24        34        16        79        53        64        7        55        47        16        55        30        17        60        5        35        62        59        65        53        61        64        62        61        47        79        41        21        39        48        63        19        48        43        31        10000000        55        36        26         
 49        94        31        45        64        94        65        116        61        91        27        70        103        77        48        81        54        84        10        92        117        58        111        109        14        103        14        99        14        41        45        39        64        45        23        91        86        55        10000000        89        49         
 40        75        60        55        26        75        60        28        31        39        74        28        25        18        51        57        38        10        95        45        29        66        27        35        94        36        79        71        75        49        59        71        73        45        77        16        8        36        89        10000000        46         
 20        56        30        9        21        56        28        70        32        42        29        40        55        30        38        38        30        38        53        44        71        27        63        60        50        54        37        58        36        10        14        25        37        9        33        43        46        26        49        46        10000000         
 DEMAND_SECTION: 
 0   236   0 
 1   13   3 
 2   6   4 
 3   2   1 
 4   3   11 
 5   7   0 
 6   8   1 
 7   11   6 
 8   6   9 
 9   1   0 
 10   8   0 
 11   15   3 
 12   9   6 
 13   6   7 
 14   2   4 
 15   13   0 
 16   14   3 
 17   7   4 
 18   8   11 
 19   2   6 
 20   3   0 
 21   8   1 
 22   12   7 
 23   1   0 
 24   3   10 
 25   1   0 
 26   4   1 
 27   1   0 
 28   7   9 
 29   4   12 
 30   2   0 
 31   12   3 
 32   2   0 
 33   3   3 
 34   4   12 
 35   7   0 
 36   11   2 
 37   1   0 
 38   6   9 
 39   2   7 
 40   1   0 
 41   0   155 
