NAME: ..//instances//e_vigo//TSP_PD_vrp200_40_6_0.00.tspBeta0.000000 
COMMENT: TSPSimoultaneousPickUpandDelivery_2008 
TYPE: TSPDC 
DIMENSION: 42 
CAPACITY: 276 
EDGE_WEIGHT_TYPE: EXPLICIT 
EDGE_WEIGHT_FORMAT: FULL_MATRIX 
EDGE_WEIGHT_SECTION: 
10000000        54        51        71        98        57        88        33        40        26        92        85        61        47        93        14        86        19        64        72        81        60        80        41        38        81        13        53        66        89        38        58        58        62        86        40        44        60        89        79        23         
 54        10000000        29        26        46        4        74        43        17        32        38        31        26        56        44        60        33        44        28        26        68        38        54        56        19        35        45        10        13        75        58        28        9        35        35        26        29        43        44        44        43         
 51        29        10000000        25        67        32        100        58        18        42        58        50        54        75        70        50        48        52        56        26        95        11        82        32        19        63        49        38        30        102        72        55        23        62        60        11        7        14        72        72        53         
 71        26        25        10000000        45        26        97        68        31        55        36        28        49        82        52        73        24        67        50        1        93        26        76        57        33        49        66        35        16        98        83        52        17        59        42        33        31        31        57        63        66         
 98        46        67        45        10000000        42        78        79        62        73        9        17        44        85        15        105        22        86        42        44        77        71        57        98        64        26        88        46        37        79        92        49        45        51        14        70        70        76        25        42        83         
 57        4        32        26        42        10000000        72        44        21        34        34        28        23        57        40        63        30        47        25        26        67        41        51        60        23        31        48        9        12        73        59        26        11        33        31        30        33        46        40        40        45         
 88        74        100        97        78        72        10000000        56        83        67        80        81        48        43        63        101        87        69        47        97        7        111        22        118        83        54        75        64        82        1        54        46        82        39        67        93        98        115        53        37        65         
 33        43        58        68        79        44        56        10000000        40        16        75        70        36        17        70        46        73        14        38        68        48        69        48        65        39        57        20        36        56        57        15        32        51        33        66        48        53        72        64        50        10         
 40        17        18        31        62        21        83        40        10000000        25        54        47        38        57        61        44        47        36        41        32        77        30        66        39        2        52        35        22        26        84        55        39        18        45        52        11        15        33        61        58        36         
 26        32        42        55        73        34        67        16        25        10000000        67        62        35        33        67        37        64        13        37        55        60        54        55        51        24        55        15        28        45        69        30        32        38        36        61        32        37        56        63        53        12         
 92        38        58        36        9        34        80        75        54        67        10000000        8        41        82        20        98        13        80        40        35        78        62        58        89        56        26        82        40        28        81        88        46        37        50        13        61        61        67        28        43        78         
 85        31        50        28        17        28        81        70        47        62        8        10000000        38        79        25        90        7        74        38        28        78        54        59        81        49        27        76        34        21        82        84        43        29        48        16        53        53        59        32        44        72         
 61        26        54        49        44        23        48        36        38        35        41        38        10000000        41        34        71        44        45        3        49        44        64        28        77        39        21        49        16        34        50        48        4        34        10        31        49        52        68        29        20        42         
 47        56        75        82        85        57        43        17        57        33        82        79        41        10000000        74        61        83        30        43        82        35        86        42        83        56        60        35        48        69        44        12        37        65        34        72        65        70        89        66        49        26         
 93        44        70        52        15        40        63        70        61        67        20        25        34        74        10000000        102        31        79        32        51        62        76        42        99        63        13        82        41        40        64        82        38        47        40        10        70        72        81        10        28        76         
 14        60        50        73        105        63        101        46        44        37        98        90        71        61        102        10000000        91        32        74        74        94        57        92        32        42        90        26        61        70        103        51        69        62        73        94        40        43        56        99        90        36         
 86        33        48        24        22        30        87        73        47        64        13        7        44        83        31        91        10000000        77        43        23        84        50        65        79        49        34        78        37        20        88        88        48        29        53        22        52        52        55        39        50        75         
 19        44        52        67        86        47        69        14        36        13        80        74        45        30        79        32        77        10000000        48        67        62        63        61        54        35        66        6        40        58        71        22        42        51        44        73        41        46        64        74        62        4         
 64        28        56        50        42        25        47        38        41        37        40        38        3        43        32        74        43        48        10000000        50        43        66        26        79        42        19        52        19        35        48        50        6        36        10        29        51        55        70        26        17        44         
 72        26        26        1        44        26        97        68        32        55        35        28        49        82        51        74        23        67        50        10000000        92        27        76        58        34        49        67        35        15        98        84        52        17        59        41        33        31        32        56        63        67         
 81        68        95        93        77        67        7        48        77        60        78        78        44        35        62        94        84        62        43        92        10000000        105        20        111        77        52        68        59        77        9        47        41        77        34        65        87        92        109        52        35        58         
 60        38        11        26        71        41        111        69        30        54        62        54        64        86        76        57        50        63        66        27        105        10000000        92        33        30        71        60        48        36        112        84        65        31        73        66        22        17        5        79        82        64         
 80        54        82        76        57        51        22        48        66        55        58        59        28        42        42        92        65        61        26        76        20        92        10000000        103        67        32        66        45        60        23        53        27        62        20        45        76        80        96        32        15        57         
 41        56        32        57        98        60        118        65        39        51        89        81        77        83        99        32        79        54        79        58        111        33        103        10000000        38        91        48        62        61        119        76        76        53        83        90        29        28        30        100        97        57         
 38        19        19        33        64        23        83        39        2        24        56        49        39        56        63        42        49        35        42        34        77        30        67        38        10000000        53        33        24        29        85        54        40        20        46        54        10        14        33        63        59        35         
 81        35        63        49        26        31        54        57        52        55        26        27        21        60        13        90        34        66        19        49        52        71        32        91        53        10000000        69        30        35        55        69        25        40        26        13        62        64        76        9        17        63         
 13        45        49        66        88        48        75        20        35        15        82        76        49        35        82        26        78        6        52        67        68        60        66        48        33        69        10000000        42        58        77        27        46        51        49        76        38        43        61        77        66        10         
 53        10        38        35        46        9        64        36        22        28        40        34        16        48        41        61        37        40        19        35        59        48        45        62        24        30        42        10000000        21        65        51        18        19        25        34        33        36        52        39        35        38         
 66        13        30        16        37        12        82        56        26        45        28        21        34        69        40        70        20        58        35        15        77        36        60        61        29        35        58        21        10000000        83        71        37        9        44        30        33        33        41        43        48        56         
 89        75        102        98        79        73        1        57        84        69        81        82        50        44        64        103        88        71        48        98        9        112        23        119        85        55        77        65        83        10000000        56        47        84        40        68        95        99        116        54        38        67         
 38        58        72        83        92        59        54        15        55        30        88        84        48        12        82        51        88        22        50        84        47        84        53        76        54        69        27        51        71        56        10000000        44        66        43        79        62        67        86        75        59        20         
 58        28        55        52        49        26        46        32        39        32        46        43        4        37        38        69        48        42        6        52        41        65        27        76        40        25        46        18        37        47        44        10000000        37        7        35        49        53        69        32        21        38         
 58        9        23        17        45        11        82        51        18        38        37        29        34        65        47        62        29        51        36        17        77        31        62        53        20        40        51        19        9        84        66        37        10000000        44        37        24        25        36        49        51        50         
 62        35        62        59        51        33        39        33        45        36        50        48        10        34        40        73        53        44        10        59        34        73        20        83        46        26        49        25        44        40        43        7        44        10000000        38        56        60        77        32        17        41         
 86        35        60        42        14        31        67        66        52        61        13        16        31        72        10        94        22        73        29        41        65        66        45        90        54        13        76        34        30        68        79        35        37        38        10000000        61        62        71        16        30        70         
 40        26        11        33        70        30        93        48        11        32        61        53        49        65        70        40        52        41        51        33        87        22        76        29        10        62        38        33        33        95        62        49        24        56        61        10000000        5        24        71        68        42         
 44        29        7        31        70        33        98        53        15        37        61        53        52        70        72        43        52        46        55        31        92        17        80        28        14        64        43        36        33        99        67        53        25        60        62        5        10000000        19        73        72        47         
 60        43        14        31        76        46        115        72        33        56        67        59        68        89        81        56        55        64        70        32        109        5        96        30        33        76        61        52        41        116        86        69        36        77        71        24        19        10000000        84        86        66         
 89        44        72        57        25        40        53        64        61        63        28        32        29        66        10        99        39        74        26        56        52        79        32        100        63        9        77        39        43        54        75        32        49        32        16        71        73        84        10000000        18        70         
 79        44        72        63        42        40        37        50        58        53        43        44        20        49        28        90        50        62        17        63        35        82        15        97        59        17        66        35        48        38        59        21        51        17        30        68        72        86        18        10000000        58         
 23        43        53        66        83        45        65        10        36        12        78        72        42        26        76        36        75        4        44        67        58        64        57        57        35        63        10        38        56        67        20        38        50        41        70        42        47        66        70        58        10000000         
 DEMAND_SECTION: 
 0   276   0 
 1   2   0 
 2   3   1 
 3   3   4 
 4   1   3 
 5   15   0 
 6   8   1 
 7   7   4 
 8   2   1 
 9   3   8 
 10   16   0 
 11   8   2 
 12   2   1 
 13   7   10 
 14   2   6 
 15   15   0 
 16   14   3 
 17   5   2 
 18   8   11 
 19   2   6 
 20   15   0 
 21   14   3 
 22   1   0 
 23   5   6 
 24   3   10 
 25   6   0 
 26   4   1 
 27   2   0 
 28   8   10 
 29   3   9 
 30   16   0 
 31   6   1 
 32   11   7 
 33   5   7 
 34   2   4 
 35   13   0 
 36   16   3 
 37   11   7 
 38   8   11 
 39   2   5 
 40   2   0 
 41   0   147 
