NAME: ..//instances//e_vigo//TSP_PD_vrp200_40_10_0.00.tspBeta0.000000 
COMMENT: TSPSimoultaneousPickUpandDelivery_2008 
TYPE: TSPDC 
DIMENSION: 42 
CAPACITY: 226 
EDGE_WEIGHT_TYPE: EXPLICIT 
EDGE_WEIGHT_FORMAT: FULL_MATRIX 
EDGE_WEIGHT_SECTION: 
10000000        57        30        89        62        47        38        64        36        34        29        80        83        59        65        78        52        25        30        60        42        29        64        52        73        61        3        16        82        24        11        13        30        71        76        13        82        49        80        39        62         
 57        10000000        59        32        25        72        20        16        45        43        49        32        26        58        34        22        35        43        30        45        32        29        11        22        57        65        55        73        30        37        60        61        60        26        73        70        27        28        42        19        36         
 30        59        10000000        90        74        77        46        71        16        17        55        89        83        32        81        81        36        48        30        81        30        39        69        43        95        32        31        38        89        24        41        18        1        61        102        31        77        65        94        49        79         
 89        32        90        10000000        38        96        51        29        75        73        77        26        7        81        46        11        59        73        62        61        60        61        27        48        67        88        87        105        19        69        91        93        91        36        86        102        17        50        41        50        49         
 62        25        74        38        10000000        58        28        11        64        61        42        19        35        81        10        28        58        40        44        23        52        36        16        46        33        87        59        76        23        50        60        70        75        50        50        75        44        14        20        26        12         
 47        72        77        96        58        10000000        55        67        78        76        25        76        92        102        54        85        88        33        62        40        77        52        71        81        45        105        45        49        81        61        37        61        76        96        37        54        98        46        67        55        50         
 38        20        46        51        28        55        10000000        26        36        34        31        44        45        56        35        40        36        24        16        39        27        9        26        26        53        62        35        53        45        22        40        44        47        41        65        51        46        21        48        2        34         
 64        16        71        29        11        67        26        10000000        59        57        48        18        25        74        21        18        50        44        41        34        46        36        5        38        44        80        61        78        19        48        64        70        72        40        61        77        33        21        26        25        23         
 36        45        16        75        64        78        36        59        10000000        3        54        77        67        24        71        66        20        46        21        74        14        31        56        27        89        27        36        48        76        17        46        29        17        45        98        42        62        57        83        39        70         
 34        43        17        73        61        76        34        57        3        10000000        51        75        66        26        68        64        20        43        18        72        13        28        54        26        86        30        34        47        73        15        44        28        18        44        95        41        60        54        81        36        67         
 29        49        55        77        42        25        31        48        54        51        10000000        61        72        78        41        66        63        8        37        33        52        27        50        56        45        81        26        38        65        37        22        42        55        72        47        40        76        28        57        31        38         
 80        32        89        26        19        76        44        18        77        75        61        10000000        26        90        22        20        67        59        59        37        64        53        21        55        42        97        77        95        7        66        79        87        90        52        60        94        38        33        15        42        26         
 83        26        83        7        35        92        45        25        67        66        72        26        10000000        75        43        7        52        67        55        58        53        54        22        41        66        82        80        98        20        62        85        86        84        30        84        95        13        46        41        44        47         
 59        58        32        81        81        102        56        74        24        26        78        90        75        10000000        89        75        23        69        42        95        29        53        69        36        109        7        59        70        87        41        69        49        33        46        120        63        65        76        100        58        89         
 65        34        81        46        10        54        35        21        71        68        41        22        43        89        10000000        36        67        41        51        15        61        42        26        55        24        95        62        78        28        57        62        75        81        60        41        78        53        16        15        33        4         
 78        22        81        11        28        85        40        18        66        64        66        20        7        75        36        10000000        52        62        52        51        52        50        16        40        59        82        76        94        14        59        80        83        82        33        77        91        18        39        35        39        40         
 52        35        36        59        58        88        36        50        20        20        63        67        52        23        67        52        10000000        54        26        74        11        36        46        13        88        30        51        66        64        29        61        47        37        26        101        61        44        55        77        38        67         
 25        43        48        73        40        33        24        44        46        43        8        59        67        69        41        62        54        10000000        28        36        44        19        46        48        49        73        22        36        62        29        21        36        48        65        54        37        70        26        57        24        38         
 30        30        30        62        44        62        16        41        21        18        37        59        55        42        51        52        26        28        10000000        54        15        11        39        22        68        47        28        45        59        7        36        31        31        42        78        41        53        36        64        18        50         
 60        45        81        61        23        40        39        34        74        72        33        37        58        95        15        51        74        36        54        10000000        66        43        39        64        14        100        57        71        43        58        55        72        81        72        28        73        67        19        27        37        11         
 42        32        30        60        52        77        27        46        14        13        52        64        53        29        61        52        11        44        15        66        10000000        25        43        13        80        35        40        56        62        18        50        38        31        32        92        51        48        47        72        29        60         
 29        29        39        61        36        52        9        36        31        28        27        53        54        53        42        50        36        19        11        43        25        10000000        35        29        58        58        26        44        54        15        32        34        39        47        67        42        54        26        56        11        40         
 64        11        69        27        16        71        26        5        56        54        50        21        22        69        26        16        46        46        39        39        43        35        10000000        34        49        76        61        79        20        46        65        69        70        34        66        77        28        25        31        24        28         
 52        22        43        48        46        81        26        38        27        26        56        55        41        36        55        40        13        48        22        64        13        29        34        10000000        77        43        50        67        52        28        59        50        44        20        90        62        35        45        64        28        56         
 73        57        95        67        33        45        53        44        89        86        45        42        66        109        24        59        88        49        68        14        80        58        49        77        10000000        115        71        83        49        72        67        85        96        83        19        85        76        33        28        51        22         
 61        65        32        88        87        105        62        80        27        30        81        97        82        7        95        82        30        73        47        100        35        58        76        43        115        10000000        61        70        94        45        71        50        33        53        125        63        72        82        106        64        95         
 3        55        31        87        59        45        35        61        36        34        26        77        80        59        62        76        51        22        28        57        40        26        61        50        71        61        10000000        18        79        23        10        16        31        70        74        16        80        46        77        37        59         
 16        73        38        105        76        49        53        78        48        47        38        95        98        70        78        94        66        36        45        71        56        44        79        67        83        70        18        10000000        97        39        16        20        37        87        83        7        98        62        93        55        74         
 82        30        89        19        23        81        45        19        76        73        65        7        20        87        28        14        64        62        59        43        62        54        20        52        49        94        79        97        10000000        66        82        88        90        47        67        96        32        37        22        43        32         
 24        37        24        69        50        61        22        48        17        15        37        66        62        41        57        59        29        29        7        58        18        15        46        28        72        45        23        39        66        10000000        32        24        25        48        81        35        60        41        70        25        55         
 11        60        41        91        60        37        40        64        46        44        22        79        85        69        62        80        61        21        36        55        50        32        65        59        67        71        10        16        82        32        10000000        24        40        78        68        18        86        47        77        41        59         
 13        61        18        93        70        61        44        70        29        28        42        87        86        49        75        83        47        36        31        72        38        34        69        50        85        50        16        20        88        24        24        10000000        17        70        89        14        84        58        89        45        72         
 30        60        1        91        75        76        47        72        17        18        55        90        84        33        81        82        37        48        31        81        31        39        70        44        96        33        31        37        90        25        40        17        10000000        63        102        30        79        66        95        49        79         
 71        26        61        36        50        96        41        40        45        44        72        52        30        46        60        33        26        65        42        72        32        47        34        20        83        53        70        87        47        48        78        70        63        10000000        99        82        19        54        65        42        62         
 76        73        102        86        50        37        65        61        98        95        47        60        84        120        41        77        101        54        78        28        92        67        66        90        19        125        74        83        67        81        68        89        102        99        10000000        86        94        46        46        63        38         
 13        70        31        102        75        54        51        77        42        41        40        94        95        63        78        91        61        37        41        73        51        42        77        62        85        63        16        7        96        35        18        14        30        82        86        10000000        94        62        93        53        75         
 82        27        77        17        44        98        46        33        62        60        76        38        13        65        53        18        44        70        53        67        48        54        28        35        76        72        80        98        32        60        86        84        79        19        94        94        10000000        53        53        46        56         
 49        28        65        50        14        46        21        21        57        54        28        33        46        76        16        39        55        26        36        19        47        26        25        45        33        82        46        62        37        41        47        58        66        54        46        62        53        10000000        31        18        14         
 80        42        94        41        20        67        48        26        83        81        57        15        41        100        15        35        77        57        64        27        72        56        31        64        28        106        77        93        22        70        77        89        95        65        46        93        53        31        10000000        46        19         
 39        19        49        50        26        55        2        25        39        36        31        42        44        58        33        39        38        24        18        37        29        11        24        28        51        64        37        55        43        25        41        45        49        42        63        53        46        18        46        10000000        32         
 62        36        79        49        12        50        34        23        70        67        38        26        47        89        4        40        67        38        50        11        60        40        28        56        22        95        59        74        32        55        59        72        79        62        38        75        56        14        19        32        10000000         
 DEMAND_SECTION: 
 0   226   0 
 1   15   3 
 2   5   3 
 3   5   6 
 4   1   3 
 5   3   0 
 6   8   1 
 7   9   6 
 8   5   6 
 9   3   8 
 10   4   0 
 11   2   0 
 12   7   4 
 13   1   0 
 14   1   0 
 15   7   0 
 16   14   3 
 17   2   1 
 18   8   11 
 19   2   6 
 20   7   0 
 21   4   1 
 22   8   5 
 23   5   6 
 24   3   10 
 25   2   0 
 26   4   1 
 27   9   5 
 28   4   6 
 29   2   6 
 30   1   0 
 31   16   3 
 32   9   5 
 33   4   4 
 34   2   4 
 35   9   0 
 36   12   3 
 37   4   2 
 38   2   1 
 39   3   12 
 40   14   0 
 41   0   135 
