NAME: ..//instances//e_vigo//TSP_PD_vrp200_40_2_0.00.tspBeta0.000000 
COMMENT: TSPSimoultaneousPickUpandDelivery_2008 
TYPE: TSPDC 
DIMENSION: 42 
CAPACITY: 247 
EDGE_WEIGHT_TYPE: EXPLICIT 
EDGE_WEIGHT_FORMAT: FULL_MATRIX 
EDGE_WEIGHT_SECTION: 
10000000        9        46        34        21        36        35        30        45        16        45        38        64        85        28        55        28        54        56        67        28        61        22        68        36        57        27        55        15        14        73        28        13        60        9        43        25        56        51        38        61         
 9        10000000        55        26        27        42        44        37        52        23        42        43        72        94        37        57        37        53        65        74        34        70        28        68        33        61        21        60        9        16        74        19        13        67        9        43        32        54        59        47        68         
 46        55        10000000        80        37        32        12        31        43        35        76        35        45        46        18        69        25        79        10        41        36        17        38        86        71        62        70        54        60        48        92        74        53        37        51        69        33        84        24        18        37         
 34        26        80        10000000        48        63        70        58        73        47        48        63        95        119        63        72        62        61        90        98        54        95        48        77        39        78        24        80        24        35        81        6        33        91        32        53        53        59        84        72        89         
 21        27        37        48        10000000        15        31        10        55        7        65        17        70        82        25        72        32        74        45        69        7        54        2        86        57        71        48        67        35        13        92        43        34        63        30        62        5        76        52        38        41         
 36        42        32        63        15        10000000        31        6        62        20        79        4        72        77        28        82        38        86        37        70        9        48        15        98        71        80        63        74        51        28        104        58        49        65        44        75        11        90        52        40        26         
 35        44        12        70        31        31        10000000        28        34        27        65        35        41        51        7        58        13        68        22        39        32        26        33        75        59        53        58        46        48        40        82        64        42        34        40        57        28        72        21        9        44         
 30        37        31        58        10        6        28        10000000        58        14        73        9        69        76        24        77        33        81        38        67        5        48        10        92        65        75        57        70        45        23        99        53        43        62        38        69        5        84        49        37        32         
 45        52        43        73        55        62        34        58        10000000        49        45        66        22        54        34        28        24        42        50        28        59        44        57        45        45        20        52        13        49        57        51        67        41        21        43        35        55        48        24        25        78         
 16        23        35        47        7        20        27        14        49        10000000        59        22        64        78        21        65        26        67        44        65        13        52        9        80        51        65        43        61        31        13        86        41        29        58        24        56        9        70        47        34        46         
 45        42        76        48        65        79        65        73        45        59        10000000        81        66        98        60        28        52        13        86        72        72        85        67        29        10        38        25        44        34        57        33        45        31        66        36        10        69        12        66        60        103         
 38        43        35        63        17        4        35        9        66        22        81        10000000        76        81        32        86        41        89        40        74        10        52        16        101        73        84        64        78        52        28        107        58        51        69        46        78        13        92        56        44        26         
 64        72        45        95        70        72        41        69        22        64        66        76        10000000        35        45        43        38        61        48        8        72        38        72        59        67        32        74        23        71        75        64        89        62        8        64        56        68        67        21        32        81         
 85        94        46        119        82        77        51        76        54        78        98        81        35        10000000        58        78        57        95        41        27        81        29        83        94        97        67        102        58        95        91        99        112        87        33        87        89        78        101        35        47        74         
 28        37        18        63        25        28        7        24        34        21        60        32        45        58        10000000        57        10        64        28        44        27        33        27        73        54        53        51        47        41        33        80        56        35        38        33        53        23        68        27        13        45         
 55        57        69        72        72        82        58        77        28        65        28        86        43        78        57        10000000        47        18        77        51        78        72        74        17        34        12        47        20        51        69        24        67        44        46        49        19        74        25        51        51        102         
 28        37        25        62        32        38        13        33        24        26        52        41        38        57        10        47        10000000        55        34        39        35        35        34        63        47        43        47        37        39        37        70        56        31        32        31        45        31        60        23        10        55         
 54        53        79        61        74        86        68        81        42        67        13        89        61        95        64        18        55        10000000        88        68        80        85        75        16        22        30        37        38        45        67        21        57        41        62        46        11        76        6        65        62        109         
 56        65        10        90        45        37        22        38        50        44        86        40        48        41        28        77        34        88        10000000        43        42        13        46        94        81        70        80        61        70        57        101        84        64        40        61        78        40        93        28        27        35         
 67        74        41        98        69        70        39        67        28        65        72        74        8        27        44        51        39        68        43        10000000        71        31        71        67        72        40        79        31        74        76        72        92        66        7        67        62        67        74        18        31        77         
 28        34        36        54        7        9        32        5        59        13        72        10        72        81        27        78        35        80        42        71        10000000        53        6        92        63        76        54        72        42        19        98        49        41        65        36        69        4        83        53        40        35         
 61        70        17        95        54        48        26        48        44        52        85        52        38        29        33        72        35        85        13        31        53        10000000        55        89        81        63        82        54        74        64        95        89        66        30        65        76        50        91        21        25        47         
 22        28        38        48        2        15        33        10        57        9        67        16        72        83        27        74        34        75        46        71        6        55        10000000        88        58        73        48        69        36        13        94        43        36        65        31        64        6        78        53        40        41         
 68        68        86        77        86        98        75        92        45        80        29        101        59        94        73        17        63        16        94        67        92        89        88        10000000        38        27        53        36        60        81        6        73        55        63        60        25        88        19        69        68        118         
 36        33        71        39        57        71        59        65        45        51        10        73        67        97        54        34        47        22        81        72        63        81        58        38        10000000        42        15        47        24        48        43        35        22        66        27        15        60        22        64        56        95         
 57        61        62        78        71        80        53        75        20        65        38        84        32        67        53        12        43        30        70        40        76        63        73        27        42        10000000        55        9        56        71        33        73        48        36        52        28        72        36        42        45        97         
 27        21        70        24        48        63        58        57        52        43        25        64        74        102        51        47        47        37        80        79        54        82        48        53        15        55        10000000        57        12        37        58        20        16        72        19        29        52        37        68        57        88         
 55        60        54        80        67        74        46        70        13        61        44        78        23        58        47        20        37        38        61        31        72        54        69        36        47        9        57        10000000        57        68        42        74        48        26        51        34        67        44        34        37        90         
 15        9        60        24        35        51        48        45        49        31        34        52        71        95        41        51        39        45        70        74        42        74        36        60        24        56        12        57        10000000        25        65        18        9        67        9        35        40        46        61        49        76         
 14        16        48        35        13        28        40        23        57        13        57        28        75        91        33        69        37        67        57        76        19        64        13        81        48        71        37        68        25        10000000        87        30        27        69        22        56        18        69        59        45        54         
 73        74        92        81        92        104        82        99        51        86        33        107        64        99        80        24        70        21        101        72        98        95        94        6        43        33        58        42        65        87        10000000        78        61        68        66        31        95        22        75        74        125         
 28        19        74        6        43        58        64        53        67        41        45        58        89        112        56        67        56        57        84        92        49        89        43        73        35        73        20        74        18        30        78        10000000        27        85        25        49        48        56        78        66        84         
 13        13        53        33        34        49        42        43        41        29        31        51        62        87        35        44        31        41        64        66        41        66        36        55        22        48        16        48        9        27        61        27        10000000        59        5        30        38        43        53        42        74         
 60        67        37        91        63        65        34        62        21        58        66        69        8        33        38        46        32        62        40        7        65        30        65        63        66        36        72        26        67        69        68        85        59        10000000        60        56        62        69        13        25        74         
 9        9        51        32        30        44        40        38        43        24        36        46        64        87        33        49        31        46        61        67        36        65        31        60        27        52        19        51        9        22        66        25        5        60        10000000        35        34        48        53        41        70         
 43        43        69        53        62        75        57        69        35        56        10        78        56        89        53        19        45        11        78        62        69        76        64        25        15        28        29        34        35        56        31        49        30        56        35        10000000        65        15        57        52        98         
 25        32        33        53        5        11        28        5        55        9        69        13        68        78        23        74        31        76        40        67        4        50        6        88        60        72        52        67        40        18        95        48        38        62        34        65        10000000        79        49        36        37         
 56        54        84        59        76        90        72        84        48        70        12        92        67        101        68        25        60        6        93        74        83        91        78        19        22        36        37        44        46        69        22        56        43        69        48        15        79        10000000        71        67        113         
 51        59        24        84        52        52        21        49        24        47        66        56        21        35        27        51        23        65        28        18        53        21        53        69        64        42        68        34        61        59        75        78        53        13        53        57        49        71        10000000        13        60         
 38        47        18        72        38        40        9        37        25        34        60        44        32        47        13        51        10        62        27        31        40        25        40        68        56        45        57        37        49        45        74        66        42        25        41        52        36        67        13        10000000        53         
 61        68        37        89        41        26        44        32        78        46        103        26        81        74        45        102        55        109        35        77        35        47        41        118        95        97        88        90        76        54        125        84        74        74        70        98        37        113        60        53        10000000         
 DEMAND_SECTION: 
 0   247   0 
 1   5   1 
 2   1   0 
 3   2   1 
 4   1   3 
 5   7   0 
 6   8   1 
 7   5   2 
 8   6   9 
 9   3   8 
 10   8   0 
 11   15   3 
 12   9   6 
 13   6   7 
 14   4   12 
 15   3   0 
 16   14   3 
 17   7   4 
 18   8   11 
 19   2   6 
 20   3   0 
 21   8   1 
 22   6   3 
 23   5   6 
 24   3   10 
 25   10   0 
 26   4   1 
 27   6   4 
 28   3   3 
 29   4   12 
 30   12   0 
 31   12   3 
 32   2   0 
 33   7   9 
 34   2   4 
 35   17   0 
 36   3   0 
 37   6   4 
 38   6   9 
 39   4   15 
 40   10   0 
 41   0   161 
