NAME: ..//instances//e_vigo//TSP_PD_vrp200_40_8_0.00.tspBeta0.000000 
COMMENT: TSPSimoultaneousPickUpandDelivery_2008 
TYPE: TSPDC 
DIMENSION: 42 
CAPACITY: 242 
EDGE_WEIGHT_TYPE: EXPLICIT 
EDGE_WEIGHT_FORMAT: FULL_MATRIX 
EDGE_WEIGHT_SECTION: 
10000000        52        18        63        12        65        28        25        93        4        38        72        10        62        49        38        41        78        88        57        65        54        38        29        32        9        74        77        10        83        94        77        55        60        50        80        79        71        19        75        93         
 52        10000000        56        87        40        14        27        64        85        48        66        80        52        11        77        15        78        81        52        74        65        13        51        23        26        60        67        35        57        57        64        32        30        34        82        78        34        70        34        91        59         
 18        56        10000000        45        22        68        29        8        78        18        20        55        29        64        30        46        24        62        82        39        49        55        23        37        31        21        60        74        10        73        85        75        49        54        32        64        77        55        23        57        86         
 63        87        45        10000000        64        94        63        39        54        62        25        24        73        90        15        82        26        33        86        14        34        79        35        75        62        64        44        87        54        69        81        91        64        65        16        39        91        36        63        16        85         
 12        40        22        64        10000000        53        16        30        87        8        39        69        17        49        50        27        46        74        77        56        59        42        33        17        21        21        68        65        18        73        84        65        44        50        53        74        67        66        7        74        83         
 65        14        68        94        53        10000000        39        75        83        61        75        84        66        4        85        29        88        83        43        80        68        15        60        36        37        74        68        25        70        52        56        21        32        33        91        79        23        72        47        95        51         
 28        27        29        63        16        39        10000000        37        76        24        40        62        33        35        51        19        51        66        61        52        50        26        28        12        5        37        56        49        31        58        68        49        28        34        56        65        51        56        9        70        67         
 25        64        8        39        30        75        37        10000000        77        25        16        52        35        72        24        54        16        59        86        36        48        61        24        45        38        26        60        80        15        76        88        81        54        59        25        62        83        54        31        52        89         
 93        85        78        54        87        83        76        77        10000000        91        63        30        103        81        61        90        74        21        51        45        29        72        56        87        71        99        19        63        88        34        39        69        54        50        66        16        67        23        81        41        46         
 4        48        18        62        8        61        24        25        91        10000000        37        70        12        58        48        34        42        76        84        56        62        50        35        25        28        13        71        73        12        79        90        73        51        57        50        77        75        68        15        74        89         
 38        66        20        25        39        75        40        16        63        37        10000000        36        49        71        11        59        15        44        78        20        34        60        16        51        40        41        46        74        30        65        77        77        49        52        16        47        78        40        38        37        80         
 72        80        55        24        69        84        62        52        30        70        36        10000000        82        81        32        80        45        9        67        16        16        70        36        74        59        76        22        72        65        49        59        77        52        51        36        15        76        14        65        14        64         
 10        52        29        73        17        66        33        35        103        12        49        82        10000000        63        59        38        51        89        94        68        74        57        47        30        38        13        83        81        20        90        101        81        61        67        60        89        83        81        24        85        100         
 62        11        64        90        49        4        35        72        81        58        71        81        63        10000000        82        26        84        81        43        77        66        12        56        33        33        71        65        25        66        51        56        21        29        31        87        77        24        69        43        92        51         
 49        77        30        15        50        85        51        24        61        48        11        32        59        82        10000000        70        13        41        84        16        35        70        25        62        51        50        47        82        39        69        81        85        57        60        6        45        86        39        49        29        84         
 38        15        46        82        27        29        19        54        90        34        59        80        38        26        70        10000000        69        83        64        71        66        24        47        9        21        47        71        48        45        66        74        46        36        42        75        81        48        72        23        89        71         
 41        78        24        26        46        88        51        16        74        42        15        45        51        84        13        69        10000000        54        92        29        47        73        30        61        52        40        59        89        31        79        91        91        63        66        10        58        92        52        47        41        94         
 78        81        62        33        74        83        66        59        21        76        44        9        89        81        41        83        54        10000000        62        25        16        70        41        78        62        83        17        68        72        43        52        74        52        50        46        7        73        11        70        21        58         
 88        52        82        86        77        43        61        86        51        84        78        67        94        43        84        64        92        62        10000000        72        53        40        63        67        56        97        45        17        89        19        15        23        34        28        90        55        20        52        70        80        9         
 57        74        39        14        56        80        52        36        45        56        20        16        68        77        16        71        29        25        72        10000000        20        65        24        64        50        61        32        73        49        56        67        77        50        51        21        29        77        24        53        18        72         
 65        65        49        34        59        68        50        48        29        62        34        16        74        66        35        66        47        16        53        20        10000000        54        27        62        46        70        12        56        59        36        47        61        37        36        41        15        61        6        54        28        51         
 54        13        55        79        42        15        26        61        72        50        60        70        57        12        70        24        73        70        40        65        54        10000000        45        28        23        63        55        25        58        44        51        23        18        21        76        66        25        59        35        81        47         
 38        51        23        35        33        60        28        24        56        35        16        36        47        56        25        47        30        41        63        24        27        45        10000000        40        26        43        37        58        32        51        63        61        33        36        31        42        62        33        29        42        65         
 29        23        37        75        17        36        12        45        87        25        51        74        30        33        62        9        61        78        67        64        62        28        40        10000000        16        38        68        52        36        66        76        51        36        42        66        77        53        68        14        82        73         
 32        26        31        62        21        37        5        38        71        28        40        59        38        33        51        21        52        62        56        50        46        23        26        16        10000000        41        52        45        35        53        63        45        23        29        55        61        47        52        14        67        62         
 9        60        21        64        21        74        37        26        99        13        41        76        13        71        50        47        40        83        97        61        70        63        43        38        41        10000000        80        86        11        91        102        86        63        69        50        85        88        76        28        77        102         
 74        67        60        44        68        68        56        60        19        71        46        22        83        65        47        71        59        17        45        32        12        55        37        68        52        80        10000000        51        69        26        37        57        37        34        53        12        56        9        62        36        42         
 77        35        74        87        65        25        49        80        63        73        74        72        81        25        82        48        89        68        17        73        56        25        58        52        45        86        51        10000000        79        30        32        6        26        22        88        63        4        58        58        85        26         
 10        57        10        54        18        70        31        15        88        12        30        65        20        66        39        45        31        72        89        49        59        58        32        36        35        11        69        79        10000000        81        92        80        55        60        40        74        81        65        23        66        93         
 83        57        73        69        73        52        58        76        34        79        65        49        90        51        69        66        79        43        19        56        36        44        51        66        53        91        26        30        81        10000000        12        36        30        25        76        37        34        35        66        62        16         
 94        64        85        81        84        56        68        88        39        90        77        59        101        56        81        74        91        52        15        67        47        51        63        76        63        102        37        32        92        12        10000000        37        40        34        87        46        35        45        76        73        7         
 77        32        75        91        65        21        49        81        69        73        77        77        81        21        85        46        91        74        23        77        61        23        61        51        45        86        57        6        80        36        37        10000000        28        26        92        69        3        63        58        89        31         
 55        30        49        64        44        32        28        54        54        51        49        52        61        29        57        36        63        52        34        50        37        18        33        36        23        63        37        26        55        30        40        28        10000000        6        63        48        29        41        37        64        39         
 60        34        54        65        50        33        34        59        50        57        52        51        67        31        60        42        66        50        28        51        36        21        36        42        29        69        34        22        60        25        34        26        6        10000000        66        46        26        39        43        64        33         
 50        82        32        16        53        91        56        25        66        50        16        36        60        87        6        75        10        46        90        21        41        76        31        66        55        50        53        88        40        76        87        92        63        66        10000000        50        92        45        53        31        91         
 80        78        64        39        74        79        65        62        16        77        47        15        89        77        45        81        58        7        55        29        15        66        42        77        61        85        12        63        74        37        46        69        48        46        50        10000000        68        9        69        28        52         
 79        34        77        91        67        23        51        83        67        75        78        76        83        24        86        48        92        73        20        77        61        25        62        53        47        88        56        4        81        34        35        3        29        26        92        68        10000000        62        60        89        29         
 71        70        55        36        66        72        56        54        23        68        40        14        81        69        39        72        52        11        52        24        6        59        33        68        52        76        9        58        65        35        45        63        41        39        45        9        62        10000000        60        28        50         
 19        34        23        63        7        47        9        31        81        15        38        65        24        43        49        23        47        70        70        53        54        35        29        14        14        28        62        58        23        66        76        58        37        43        53        69        60        60        10000000        71        75         
 75        91        57        16        74        95        70        52        41        74        37        14        85        92        29        89        41        21        80        18        28        81        42        82        67        77        36        85        66        62        73        89        64        64        31        28        89        28        71        10000000        78         
 93        59        86        85        83        51        67        89        46        89        80        64        100        51        84        71        94        58        9        72        51        47        65        73        62        102        42        26        93        16        7        31        39        33        91        52        29        50        75        78        10000000         
 DEMAND_SECTION: 
 0   242   0 
 1   8   2 
 2   10   6 
 3   8   11 
 4   1   3 
 5   19   0 
 6   8   1 
 7   2   1 
 8   3   4 
 9   3   8 
 10   1   0 
 11   5   1 
 12   5   2 
 13   4   5 
 14   1   3 
 15   11   0 
 16   14   3 
 17   9   6 
 18   8   11 
 19   2   6 
 20   11   0 
 21   1   0 
 22   11   6 
 23   5   6 
 24   3   10 
 25   14   0 
 26   4   1 
 27   11   7 
 28   6   8 
 29   1   0 
 30   8   0 
 31   3   0 
 32   4   2 
 33   1   0 
 34   2   4 
 35   1   0 
 36   6   1 
 37   2   0 
 38   5   6 
 39   3   8 
 40   18   0 
 41   0   132 
