NAME: ..//instances//e_vigo//TSP_PD_vrp200_40_9_0.00.tspBeta0.000000 
COMMENT: TSPSimoultaneousPickUpandDelivery_2008 
TYPE: TSPDC 
DIMENSION: 42 
CAPACITY: 284 
EDGE_WEIGHT_TYPE: EXPLICIT 
EDGE_WEIGHT_FORMAT: FULL_MATRIX 
EDGE_WEIGHT_SECTION: 
10000000        57        56        77        24        40        78        36        40        61        55        77        46        44        4        23        80        27        65        73        67        87        28        67        38        51        39        50        46        90        72        9        66        31        70        38        18        26        60        25        46         
 57        10000000        84        21        74        18        68        28        59        89        30        20        35        77        61        47        70        34        81        52        18        50        84        10        71        40        81        53        76        58        71        52        14        66        17        40        72        34        38        82        60         
 56        84        10000000        94        75        69        48        80        25        5        100        96        50        12        54        42        49        73        16        57        81        78        67        91        18        48        23        34        11        76        37        63        98        26        100        89        68        72        56        57        25         
 77        21        94        10000000        95        37        67        50        70        98        48        4        44        89        80        63        68        56        87        49        13        39        104        12        84        46        95        61        87        47        72        72        24        80        22        61        92        55        40        101        69         
 24        74        75        95        10000000        59        102        48        63        79        63        94        69        63        23        47        104        40        86        97        87        110        17        85        58        74        54        74        65        113        95        24        80        51        84        43        7        41        83        24        68         
 40        18        69        37        59        10000000        63        19        44        74        33        37        25        61        43        30        65        21        68        50        29        55        67        28        55        31        64        42        60        61        63        35        30        49        33        33        55        19        34        64        46         
 78        68        48        67        102        63        10000000        81        40        49        95        70        38        52        79        55        2        79        33        18        56        36        100        70        52        32        65        28        49        30        11        81        81        55        82        94        95        77        30        92        35         
 36        28        80        50        48        19        81        10000000        57        85        20        48        43        70        40        38        83        9        83        69        44        74        60        38        64        49        70        58        70        80        80        28        32        57        36        13        46        10        53        60        60         
 40        59        25        70        63        44        40        57        10000000        30        75        72        25        19        40        20        42        51        27        42        57        61        60        66        15        25        28        14        17        60        32        45        72        16        75        67        56        49        34        52        5         
 61        89        5        98        79        74        49        85        30        10000000        105        100        54        17        59        47        50        78        17        60        85        81        70        96        23        52        26        38        16        78        38        68        102        30        105        94        72        77        59        60        29         
 55        30        100        48        63        33        95        20        75        105        10000000        45        58        90        59        58        97        29        101        81        48        81        77        36        84        64        90        75        90        88        96        47        24        77        28        20        63        30        65        79        78         
 77        20        96        4        94        37        70        48        72        100        45        10000000        46        91        80        64        72        55        90        53        15        43        104        10        86        49        97        63        89        52        76        72        21        82        18        59        92        54        43        101        72         
 46        35        50        44        69        25        38        43        25        54        58        46        10000000        45        48        24        40        41        45        28        32        41        72        42        40        6        52        18        43        44        37        46        50        37        52        56        64        39        13        66        25         
 44        77        12        89        63        61        52        70        19        17        90        91        45        10000000        42        32        53        62        25        58        76        78        55        85        6        44        13        31        3        77        42        51        90        14        93        78        56        61        53        45        21         
 4        61        54        80        23        43        79        40        40        59        59        80        48        42        10000000        24        81        31        64        75        70        89        25        71        36        52        36        51        44        92        72        13        70        29        74        42        17        30        62        21        45         
 23        47        42        63        47        30        55        38        20        47        58        64        24        32        24        10000000        57        31        46        51        51        66        48        56        26        28        34        27        32        68        49        26        59        19        63        47        41        30        38        42        24         
 80        70        49        68        104        65        2        83        42        50        97        72        40        53        81        57        10000000        81        34        19        57        37        102        72        54        34        66        30        51        31        12        83        83        57        84        96        97        79        32        93        37         
 27        34        73        56        40        21        79        9        51        78        29        55        41        62        31        31        81        10000000        77        69        49        76        51        45        56        47        61        54        63        82        77        19        41        49        45        16        38        2        53        51        54         
 65        81        16        87        86        68        33        83        27        17        101        90        45        25        64        46        34        77        10000000        45        75        66        80        87        29        42        38        28        22        62        22        71        95        35        97        93        79        75        47        70        23         
 73        52        57        49        97        50        18        69        42        60        81        53        28        58        75        51        19        69        45        10000000        39        21        98        53        56        23        69        28        56        19        26        74        65        57        66        82        91        67        16        91        38         
 67        18        81        13        87        29        56        44        57        85        48        15        32        76        70        51        57        49        75        39        10000000        33        95        15        72        34        83        48        75        41        61        63        27        68        28        57        83        47        28        91        57         
 87        50        78        39        110        55        36        74        61        81        81        43        41        78        89        66        37        76        66        21        33        10000000        114        47        76        38        89        47        76        9        46        86        60        76        60        87        105        74        28        107        57         
 28        84        67        104        17        67        100        60        60        70        77        104        72        55        25        48        102        51        80        98        95        114        10000000        95        51        76        44        72        57        116        92        33        92        46        96        58        14        52        86        10        65         
 67        10        91        12        85        28        70        38        66        96        36        10        42        85        71        56        72        45        87        53        15        47        95        10000000        79        45        90        59        84        56        74        62        13        75        13        49        82        44        41        92        67         
 38        71        18        84        58        55        52        64        15        23        84        86        40        6        36        26        54        56        29        56        72        76        51        79        10000000        40        13        29        7        75        43        45        84        8        87        72        51        55        50        42        19         
 51        40        48        46        74        31        32        49        25        52        64        49        6        44        52        28        34        47        42        23        34        38        76        45        40        10000000        53        14        42        40        32        51        54        39        56        62        69        45        10        70        23         
 39        81        23        95        54        64        65        70        28        26        90        97        52        13        36        34        66        61        38        69        83        89        44        90        13        53        10000000        42        16        88        54        47        93        15        97        76        47        60        62        34        32         
 50        53        34        61        74        42        28        58        14        38        75        63        18        31        51        27        30        54        28        28        48        47        72        59        29        14        42        10000000        29        47        23        53        67        29        70        70        67        52        22        65        10         
 46        76        11        87        65        60        49        70        17        16        90        89        43        3        44        32        51        63        22        56        75        76        57        84        7        42        16        29        10000000        74        39        53        89        15        92        78        58        61        51        48        19         
 90        58        76        47        113        61        30        80        60        78        88        52        44        77        92        68        31        82        62        19        41        9        116        56        75        40        88        47        74        10000000        41        90        68        76        68        94        108        80        31        109        56         
 72        71        37        72        95        63        11        80        32        38        96        76        37        42        72        49        12        77        22        26        61        46        92        74        43        32        54        23        39        41        10000000        76        85        47        86        92        89        75        33        83        27         
 9        52        63        72        24        35        81        28        45        68        47        72        46        51        13        26        83        19        71        74        63        86        33        62        45        51        47        53        53        90        76        10000000        59        38        63        30        20        19        59        32        50         
 66        14        98        24        80        30        81        32        72        102        24        21        50        90        70        59        83        41        95        65        27        60        92        13        84        54        93        67        89        68        85        59        10000000        79        4        40        78        40        52        91        74         
 31        66        26        80        51        49        55        57        16        30        77        82        37        14        29        19        57        49        35        57        68        76        46        75        8        39        15        29        15        76        47        38        79        10000000        82        64        44        47        48        37        21         
 70        17        100        22        84        33        82        36        75        105        28        18        52        93        74        63        84        45        97        66        28        60        96        13        87        56        97        70        92        68        86        63        4        82        10000000        44        83        44        53        95        76         
 38        40        89        61        43        33        94        13        67        94        20        59        56        78        42        47        96        16        93        82        57        87        58        49        72        62        76        70        78        94        92        30        40        64        44        10000000        44        18        66        60        71         
 18        72        68        92        7        55        95        46        56        72        63        92        64        56        17        41        97        38        79        91        83        105        14        82        51        69        47        67        58        108        89        20        78        44        83        44        10000000        38        77        18        62         
 26        34        72        55        41        19        77        10        49        77        30        54        39        61        30        30        79        2        75        67        47        74        52        44        55        45        60        52        61        80        75        19        40        47        44        18        38        10000000        51        51        53         
 60        38        56        40        83        34        30        53        34        59        65        43        13        53        62        38        32        53        47        16        28        28        86        41        50        10        62        22        51        31        33        59        52        48        53        66        77        51        10000000        79        32         
 25        82        57        101        24        64        92        60        52        60        79        101        66        45        21        42        93        51        70        91        91        107        10        92        42        70        34        65        48        109        83        32        91        37        95        60        18        51        79        10000000        57         
 46        60        25        69        68        46        35        60        5        29        78        72        25        21        45        24        37        54        23        38        57        57        65        67        19        23        32        10        19        56        27        50        74        21        76        71        62        53        32        57        10000000         
 DEMAND_SECTION: 
 0   284   0 
 1   4   0 
 2   2   0 
 3   6   9 
 4   3   11 
 5   11   0 
 6   8   1 
 7   6   3 
 8   8   11 
 9   1   0 
 10   12   0 
 11   12   2 
 12   12   7 
 13   2   3 
 14   1   1 
 15   9   0 
 16   14   3 
 17   12   7 
 18   8   11 
 19   2   6 
 20   19   0 
 21   11   2 
 22   9   6 
 23   1   0 
 24   3   10 
 25   8   0 
 26   4   1 
 27   10   6 
 28   5   7 
 29   1   3 
 30   14   0 
 31   9   2 
 32   6   4 
 33   6   8 
 34   4   12 
 35   15   0 
 36   1   0 
 37   3   1 
 38   3   4 
 39   3   10 
 40   16   0 
 41   0   151 
