NAME: ..//instances//e_vigo//TSP_PD_vrp200_40_3_0.00.tspBeta0.000000 
COMMENT: TSPSimoultaneousPickUpandDelivery_2008 
TYPE: TSPDC 
DIMENSION: 42 
CAPACITY: 224 
EDGE_WEIGHT_TYPE: EXPLICIT 
EDGE_WEIGHT_FORMAT: FULL_MATRIX 
EDGE_WEIGHT_SECTION: 
10000000        85        59        93        11        74        89        87        56        57        16        43        17        7        64        45        99        4        96        86        23        63        20        85        55        78        64        18        69        100        68        83        89        94        58        19        56        93        77        29        86         
 85        10000000        26        63        82        98        77        53        29        93        74        85        81        79        107        59        19        86        94        90        69        101        85        66        30        48        72        80        128        85        62        22        63        79        101        88        43        33        34        58        101         
 59        26        10000000        61        56        81        69        51        3        72        48        63        55        52        87        37        41        60        85        79        43        81        60        60        4        43        56        54        105        79        49        30        59        73        80        62        25        42        32        32        87         
 93        63        61        10000000        84        54        19        10        62        60        93        63        79        86        72        49        55        92        36        36        70        65        80        11        64        18        35        78        97        23        26        40        5        18        69        83        41        32        30        68        50         
 11        82        56        84        10000000        63        79        78        53        46        22        32        6        7        54        36        94        8        85        76        15        52        10        76        53        70        54        7        62        90        59        78        80        84        48        10        49        86        70        24        75         
 74        98        81        54        63        10000000        36        56        81        18        82        31        57        69        21        45        98        71        29        21        57        16        54        43        81        54        26        56        45        41        36        80        49        40        21        56        57        79        66        64        13         
 89        77        69        19        79        36        10000000        25        70        46        91        52        73        82        56        46        72        87        17        17        67        49        73        11        72        29        25        72        80        11        22        55        16        5        53        75        46        50        43        67        30         
 87        53        51        10        78        56        25        10000000        53        60        85        60        74        80        73        43        47        86        43        41        64        66        75        14        54        9        34        73        97        32        23        31        10        26        68        78        33        25        20        60        54         
 56        29        3        62        53        81        70        53        10000000        71        45        61        53        50        85        36        44        57        85        79        40        80        57        61        1        44        56        52        104        81        50        33        61        74        79        60        25        45        34        29        87         
 57        93        72        60        46        18        46        60        71        10000000        66        14        40        52        14        35        97        53        45        35        42        8        37        50        72        55        26        39        37        54        37        78        55        51        9        38        50        80        65        50        31         
 16        74        48        93        22        82        91        85        45        66        10000000        52        27        15        76        45        89        19        101        92        26        73        32        86        45        76        68        27        83        103        70        76        89        97        69        32        53        87        72        25        94         
 43        85        63        63        32        31        52        60        61        14        52        10000000        26        38        25        26        92        40        55        45        28        21        23        53        62        54        28        26        43        62        37        73        58        57        18        25        43        77        61        37        43         
 17        81        55        79        6        57        73        74        53        40        27        26        10000000        13        48        31        92        14        79        70        13        46        5        71        52        65        48        1        57        84        53        75        74        78        42        7        46        83        67        23        69         
 7        79        52        86        7        69        82        80        50        52        15        38        13        10000000        61        38        92        8        90        81        16        59        17        79        49        71        58        13        68        93        62        77        82        88        54        17        49        86        70        22        81         
 64        107        87        72        54        21        56        73        85        14        76        25        48        61        10000000        49        111        60        50        42        53        7        44        61        86        69        39        48        25        62        51        92        67        60        7        45        65        94        79        62        33         
 45        59        37        49        36        45        46        43        36        35        45        26        31        38        49        10000000        66        43        57        48        22        43        33        41        37        34        24        30        69        57        24        48        44        51        42        36        17        53        37        21        53         
 99        19        41        55        94        98        72        47        44        97        89        92        92        92        111        66        10000000        100        89        87        80        104        96        61        45        45        73        91        134        78        62        19        57        73        105        99        49        22        32        70        99         
 4        86        60        92        8        71        87        86        57        53        19        40        14        8        60        43        100        10000000        93        84        22        59        17        84        57        77        62        15        65        98        67        84        88        92        54        15        56        93        77        30        83         
 96        94        85        36        85        29        17        43        85        45        101        55        79        90        50        57        89        93        10000000        9        75        45        77        29        87        46        33        78        73        15        35        73        33        17        50        80        60        67        60        78        18         
 86        90        79        36        76        21        17        41        79        35        92        45        70        81        42        48        87        84        9        10000000        66        36        68        27        80        43        25        69        66        20        29        70        32        20        41        70        54        66        57        69        13         
 23        69        43        70        15        57        67        64        40        42        26        28        13        16        53        22        80        22        75        66        10000000        49        17        63        40        55        42        12        66        78        46        63        66        72        46        19        34        71        55        11        68         
 63        101        81        65        52        16        49        66        80        8        73        21        46        59        7        43        104        59        45        36        49        10000000        42        54        80        62        32        46        32        56        43        85        60        54        6        44        58        86        72        58        28         
 20        85        60        80        10        54        73        75        57        37        32        23        5        17        44        33        96        17        77        68        17        42        10000000        71        57        67        48        6        52        83        54        79        75        78        38        3        49        86        70        28        67         
 85        66        60        11        76        43        11        14        61        50        86        53        71        79        61        41        61        84        29        27        63        54        71        10000000        62        18        25        70        86        20        17        44        6        13        58        74        37        39        32        61        40         
 55        30        4        64        53        81        72        54        1        72        45        62        52        49        86        37        45        57        87        80        40        80        57        62        10000000        45        57        52        104        82        51        34        62        75        79        60        26        47        35        29        88         
 78        48        43        18        70        54        29        9        44        55        76        54        65        71        69        34        45        77        46        43        55        62        67        18        45        10000000        30        64        93        38        18        27        17        31        64        70        23        25        14        51        55         
 64        72        56        35        54        26        25        34        56        26        68        28        48        58        39        24        73        62        33        25        42        32        48        25        57        30        10000000        47        63        36        11        54        30        30        34        50        31        54        41        45        31         
 18        80        54        78        7        56        72        73        52        39        27        26        1        13        48        30        91        15        78        69        12        46        6        70        52        64        47        10000000        57        83        52        74        73        77        41        8        45        82        66        23        68         
 69        128        105        97        62        45        80        97        104        37        83        43        57        68        25        69        134        65        73        66        66        32        52        86        104        93        63        57        10000000        86        75        115        92        85        29        51        86        117        102        77        55         
 100        85        79        23        90        41        11        32        81        54        103        62        84        93        62        57        78        98        15        20        78        56        83        20        82        38        36        83        86        10000000        33        63        22        7        61        86        56        56        51        78        33         
 68        62        49        26        59        36        22        23        50        37        70        37        53        62        51        24        62        67        35        29        46        43        54        17        51        18        11        52        75        33        10000000        43        21        27        46        57        25        43        30        45        39         
 83        22        30        40        78        80        55        31        33        78        76        73        75        77        92        48        19        84        73        70        63        85        79        44        34        27        54        74        115        63        43        10000000        41        57        86        82        30        13        13        54        81         
 89        63        59        5        80        49        16        10        61        55        89        58        74        82        67        44        57        88        33        32        66        60        75        6        62        17        30        73        92        22        21        41        10000000        16        64        78        38        34        30        64        45         
 94        79        73        18        84        40        5        26        74        51        97        57        78        88        60        51        73        92        17        20        72        54        78        13        75        31        30        77        85        7        27        57        16        10000000        58        81        50        50        45        72        33         
 58        101        80        69        48        21        53        68        79        9        69        18        42        54        7        42        105        54        50        41        46        6        38        58        79        64        34        41        29        61        46        86        64        58        10000000        39        58        88        74        55        34         
 19        88        62        83        10        56        75        78        60        38        32        25        7        17        45        36        99        15        80        70        19        44        3        74        60        70        50        8        51        86        57        82        78        81        39        10000000        52        89        73        30        69         
 56        43        25        41        49        57        46        33        25        50        53        43        46        49        65        17        49        56        60        54        34        58        49        37        26        23        31        45        86        56        25        30        38        50        58        52        10000000        37        21        28        62         
 93        33        42        32        86        79        50        25        45        80        87        77        83        86        94        53        22        93        67        66        71        86        86        39        47        25        54        82        117        56        43        13        34        50        88        89        37        10000000        16        64        78         
 77        34        32        30        70        66        43        20        34        65        72        61        67        70        79        37        32        77        60        57        55        72        70        32        35        14        41        66        102        51        30        13        30        45        74        73        21        16        10000000        48        68         
 29        58        32        68        24        64        67        60        29        50        25        37        23        22        62        21        70        30        78        69        11        58        28        61        29        51        45        23        77        78        45        54        64        72        55        30        28        64        48        10000000        73         
 86        101        87        50        75        13        30        54        87        31        94        43        69        81        33        53        99        83        18        13        68        28        67        40        88        55        31        68        55        33        39        81        45        33        34        69        62        78        68        73        10000000         
 DEMAND_SECTION: 
 0   224   0 
 1   1   0 
 2   4   2 
 3   8   11 
 4   3   11 
 5   19   0 
 6   8   1 
 7   8   5 
 8   3   4 
 9   1   0 
 10   1   0 
 11   5   1 
 12   5   2 
 13   4   5 
 14   3   11 
 15   1   0 
 16   14   3 
 17   9   6 
 18   8   11 
 19   2   6 
 20   11   0 
 21   1   0 
 22   5   2 
 23   1   0 
 24   3   10 
 25   4   0 
 26   4   1 
 27   5   3 
 28   2   2 
 29   1   0 
 30   18   0 
 31   3   0 
 32   4   2 
 33   4   6 
 34   4   12 
 35   11   0 
 36   14   3 
 37   8   4 
 38   5   6 
 39   1   0 
 40   8   0 
 41   0   130 
