NAME: ..//instances//e_vigo//TSP_PD_vrp200_40_4_0.00.tspBeta0.000000 
COMMENT: TSPSimoultaneousPickUpandDelivery_2008 
TYPE: TSPDC 
DIMENSION: 42 
CAPACITY: 290 
EDGE_WEIGHT_TYPE: EXPLICIT 
EDGE_WEIGHT_FORMAT: FULL_MATRIX 
EDGE_WEIGHT_SECTION: 
10000000        50        56        40        31        58        34        69        17        56        76        44        23        54        29        24        39        40        8        60        35        25        53        11        55        43        48        41        42        35        32        10        52        53        39        35        31        56        43        42        59         
 50        10000000        8        90        45        24        81        20        38        52        30        91        68        4        72        74        11        89        44        32        61        71        46        39        55        67        97        91        50        23        39        59        2        66        54        75        36        57        93        92        9         
 56        8        10000000        96        53        18        88        13        46        50        22        98        73        5        80        80        19        96        50        38        69        79        54        45        63        68        104        97        58        25        41        66        8        75        55        82        45        65        99        99        5         
 40        90        96        10000000        60        97        17        109        54        86        115        16        32        94        28        18        79        9        47        95        50        23        81        51        79        61        8        6        67        74        67        31        92        69        66        34        64        79        5        6        99         
 31        45        53        60        10000000        64        45        64        17        77        75        54        54        49        34        51        36        55        25        36        17        37        22        27        24        72        65        57        11        46        53        33        46        25        65        33        9        25        60        59        53         
 58        24        18        97        64        10000000        92        23        52        34        20        102        69        23        85        79        29        99        54        56        79        82        70        49        78        57        105        99        71        23        33        69        25        88        44        89        56        80        101        100        23         
 34        81        88        17        45        92        10000000        101        43        87        109        10        36        86        12        23        70        10        38        81        34        10        66        44        63        66        20        13        51        69        65        24        83        52        68        17        51        63        16        14        91         
 69        20        13        109        64        23        101        10000000        58        57        13        111        85        16        92        93        31        109        63        43        81        91        62        58        71        78        117        110        68        37        52        79        19        84        65        95        56        73        112        111        11         
 17        38        46        54        17        52        43        58        10000000        60        67        53        40        42        34        40        27        52        9        43        28        33        37        10        40        55        60        53        28        31        36        23        40        42        48        37        14        42        56        55        47         
 56        52        50        86        77        34        87        57        60        10000000        52        96        55        53        85        68        50        91        57        83        88        80        90        52        97        30        94        90        86        34        24        65        54        102        21        91        71        99        91        91        55         
 76        30        22        115        75        20        109        13        67        52        10000000        119        89        27        101        98        40        116        70        57        92        99        75        65        84        77        123        117        80        41        53        86        30        97        64        104        67        86        119        118        23         
 44        91        98        16        54        102        10        111        53        96        119        10000000        43        95        21        29        80        7        48        90        42        20        74        53        70        73        14        10        60        79        74        33        93        58        76        23        60        70        12        10        100         
 23        68        73        32        54        69        36        85        40        55        89        43        10000000        72        39        14        57        37        31        82        54        32        76        32        77        30        40        36        64        48        37        23        70        73        34        47        54        78        36        37        77         
 54        4        5        94        49        23        86        16        42        53        27        95        72        10000000        77        78        16        94        48        33        65        76        49        43        58        69        102        95        53        26        42        64        3        70        57        79        40        60        97        96        5         
 29        72        80        28        34        85        12        92        34        85        101        21        39        77        10000000        28        61        22        31        70        22        8        54        37        51        68        32        25        39        63        62        20        74        41        67        7        40        51        28        26        81         
 24        74        80        18        51        79        23        93        40        68        98        29        14        78        28        10000000        63        23        32        83        47        21        73        35        73        44        26        22        60        57        48        18        76        66        48        35        53        74        23        23        83         
 39        11        19        79        36        29        70        31        27        50        40        80        57        16        61        63        10000000        78        32        33        52        60        42        28        50        59        86        79        42        17        33        48        13        59        48        64        27        52        82        81        21         
 40        89        96        9        55        99        10        109        52        91        116        7        37        94        22        23        78        10000000        46        91        44        19        76        51        73        67        10        4        62        76        70        30        91        62        71        26        61        73        6        4        99         
 8        44        50        47        25        54        38        63        9        57        70        48        31        48        31        32        32        46        10000000        52        32        29        46        5        49        48        54        47        35        31        32        16        45        48        42        36        23        50        49        48        53         
 60        32        38        95        36        56        81        43        43        83        57        90        82        33        70        83        33        91        52        10000000        51        72        22        50        31        91        101        93        33        50        65        65        31        46        80        69        31        33        96        95        34         
 35        61        69        50        17        79        34        81        28        88        92        42        54        65        22        47        52        44        32        51        10000000        28        33        36        29        78        54        47        18        59        64        31        62        20        74        19        25        29        50        48        70         
 25        71        79        23        37        82        10        91        33        80        99        20        32        76        8        21        60        19        29        72        28        10000000        58        34        56        61        28        21        44        60        57        15        73        47        61        15        42        57        24        22        81         
 53        46        54        81        22        70        66        62        37        90        75        74        76        49        54        73        42        76        46        22        33        58        10000000        46        9        91        86        79        14        57        69        55        46        24        83        51        22        11        81        80        52         
 11        39        45        51        27        49        44        58        10        52        65        53        32        43        37        35        28        51        5        50        36        34        46        10000000        50        45        58        52        38        26        28        21        41        51        39        41        24        52        54        53        48         
 55        55        63        79        24        78        63        71        40        97        84        70        77        58        51        73        50        73        49        31        29        56        9        50        10000000        96        83        76        13        64        75        56        55        16        88        47        27        2        79        77        61         
 43        67        68        61        72        57        66        78        55        30        77        73        30        69        68        44        59        67        48        91        78        61        91        45        96        10000000        68        65        83        44        27        48        69        96        13        75        69        97        66        66        73         
 48        97        104        8        65        105        20        117        60        94        123        14        40        102        32        26        86        10        54        101        54        28        86        58        83        68        10000000        7        71        82        75        38        99        72        74        36        70        83        4        6        107         
 41        91        97        6        57        99        13        110        53        90        117        10        36        95        25        22        79        4        47        93        47        21        79        52        76        65        7        10000000        64        76        69        31        92        65        70        30        63        76        3        1        100         
 42        50        58        67        11        71        51        68        28        86        80        60        64        53        39        60        42        62        35        33        18        44        14        38        13        83        71        64        10000000        54        63        42        50        17        76        37        16        14        67        65        57         
 35        23        25        74        46        23        69        37        31        34        41        79        48        26        63        57        17        76        31        50        59        60        57        26        64        44        82        76        54        10000000        16        45        25        71        31        67        38        66        78        77        30         
 32        39        41        67        53        33        65        52        36        24        53        74        37        42        62        48        33        70        32        65        64        57        69        28        75        27        75        69        63        16        10000000        42        41        78        15        67        48        76        71        71        46         
 10        59        66        31        33        69        24        79        23        65        86        33        23        64        20        18        48        30        16        65        31        15        55        21        56        48        38        31        42        45        42        10000000        61        51        47        26        35        56        34        33        69         
 52        2        8        92        46        25        83        19        40        54        30        93        70        3        74        76        13        91        45        31        62        73        46        41        55        69        99        92        50        25        41        61        10000000        67        56        76        37        57        95        94        8         
 53        66        75        69        25        88        52        84        42        102        97        58        73        70        41        66        59        62        48        46        20        47        24        51        16        96        72        65        17        71        78        51        67        10000000        90        35        32        15        68        66        74         
 39        54        55        66        65        44        68        65        48        21        64        76        34        57        67        48        48        71        42        80        74        61        83        39        88        13        74        70        76        31        15        47        56        90        10000000        74        61        89        71        71        60         
 35        75        82        34        33        89        17        95        37        91        104        23        47        79        7        35        64        26        36        69        19        15        51        41        47        75        36        30        37        67        67        26        76        35        74        10000000        40        47        33        30        84         
 31        36        45        64        9        56        51        56        14        71        67        60        54        40        40        53        27        61        23        31        25        42        22        24        27        69        70        63        16        38        48        35        37        32        61        40        10000000        29        65        64        45         
 56        57        65        79        25        80        63        73        42        99        86        70        78        60        51        74        52        73        50        33        29        57        11        52        2        97        83        76        14        66        76        56        57        15        89        47        29        10000000        79        77        63         
 43        93        99        5        60        101        16        112        56        91        119        12        36        97        28        23        82        6        49        96        50        24        81        54        79        66        4        3        67        78        71        34        95        68        71        33        65        79        10000000        2        102         
 42        92        99        6        59        100        14        111        55        91        118        10        37        96        26        23        81        4        48        95        48        22        80        53        77        66        6        1        65        77        71        33        94        66        71        30        64        77        2        10000000        101         
 59        9        5        99        53        23        91        11        47        55        23        100        77        5        81        83        21        99        53        34        70        81        52        48        61        73        107        100        57        30        46        69        8        74        60        84        45        63        102        101        10000000         
 DEMAND_SECTION: 
 0   290   0 
 1   12   2 
 2   8   4 
 3   6   9 
 4   1   3 
 5   11   0 
 6   8   1 
 7   12   7 
 8   8   11 
 9   3   8 
 10   12   0 
 11   12   2 
 12   12   7 
 13   2   3 
 14   3   9 
 15   19   0 
 16   14   3 
 17   12   7 
 18   8   11 
 19   2   6 
 20   19   0 
 21   11   2 
 22   3   2 
 23   5   6 
 24   3   10 
 25   18   0 
 26   4   1 
 27   4   2 
 28   1   1 
 29   1   3 
 30   4   0 
 31   9   2 
 32   6   4 
 33   2   2 
 34   2   4 
 35   5   0 
 36   9   2 
 37   9   5 
 38   3   4 
 39   1   2 
 40   6   0 
 41   0   145 
