NAME: ..//instances//e_vigo//TSP_PD_vrp200_40_1_0.00.tspBeta0.000000 
COMMENT: TSPSimoultaneousPickUpandDelivery_2008 
TYPE: TSPDC 
DIMENSION: 42 
CAPACITY: 266 
EDGE_WEIGHT_TYPE: EXPLICIT 
EDGE_WEIGHT_FORMAT: FULL_MATRIX 
EDGE_WEIGHT_SECTION: 
10000000        23        87        66        73        69        18        64        34        43        104        81        47        22        99        72        87        90        91        54        80        34        50        42        55        17        13        4        53        71        43        45        4        67        77        68        69        56        20        91        48         
 23        10000000        72        49        53        65        36        42        27        20        85        68        52        25        80        72        68        70        74        31        61        41        32        52        33        34        35        27        37        61        46        55        27        44        56        52        46        60        41        73        45         
 87        72        10000000        24        91        39        85        42        53        71        24        12        65        97        26        52        18        28        10        68        99        69        87        75        74        103        92        88        35        22        60        74        88        52        37        20        52        60        93        13        48         
 66        49        24        10000000        71        39        67        22        34        47        38        24        54        73        35        52        22        28        26        46        79        54        64        63        52        81        72        67        13        23        48        63        67        33        24        5        34        53        74        25        36         
 73        53        91        71        10000000        105        89        49        73        34        90        94        102        59        82        115        77        71        86        27        9        93        24        105        22        75        86        78        68        92        96        107        78        39        56        76        39        107        93        83        90         
 69        65        39        39        105        10000000        60        59        38        74        63        27        30        86        64        14        53        63        49        78        113        40        92        41        83        87        69        68        37        18        29        40        68        71        63        35        72        22        67        51        21         
 18        36        85        67        89        60        10000000        70        33        57        105        76        32        40        102        59        89        94        91        67        97        20        67        25        69        32        10        14        54        66        31        28        14        76        83        68        78        42        8        91        40         
 64        42        42        22        49        59        70        10000000        40        31        47        45        67        64        40        72        31        29        39        26        57        63        46        74        32        76        73        66        24        44        61        75        66        11        14        27        12        69        77        37        51         
 34        27        53        34        73        38        33        40        10000000        40        72        46        30        48        68        45        56        61        58        46        81        23        56        34        51        51        39        35        21        37        23        36        35        48        51        35        50        35        41        58        18         
 43        20        71        47        34        74        57        31        40        10000000        78        70        69        36        72        84        62        61        70        11        42        59        17        71        13        50        55        47        40        65        62        73        47        28        45        52        30        74        62        67        57         
 104        85        24        38        90        63        105        47        72        78        10000000        36        88        110        8        76        17        19        15        72        97        90        93        97        78        119        111        106        51        46        83        97        106        53        35        37        52        83        113        14        70         
 81        68        12        24        94        27        76        45        46        70        36        10000000        54        92        38        40        28        38        22        69        103        59        87        64        76        97        84        81        31        11        50        64        81        56        43        18        56        48        84        25        38         
 47        52        65        54        102        30        32        67        30        69        88        54        10000000        67        87        27        74        82        73        76        111        13        84        11        80        63        42        44        45        43        7        10        44        77        77        52        78        10        38        74        18         
 22        25        97        73        59        86        40        64        48        36        110        92        67        10000000        104        91        93        94        99        47        64        54        35        64        45        16        33        26        62        84        63        67        26        64        78        77        66        76        40        97        65         
 99        80        26        35        82        64        102        40        68        72        8        38        87        104        10000000        78        13        11        16        65        89        88        85        96        71        114        107        101        48        46        81        96        101        46        28        35        44        83        109        13        69         
 72        72        52        52        115        14        59        72        45        84        76        40        27        91        78        10000000        66        77        62        88        124        39        101        37        94        89        69        70        49        32        29        34        70        83        76        48        84        17        66        64        27         
 87        68        18        22        77        53        89        31        56        62        17        28        74        93        13        66        10000000        11        9        57        85        75        77        83        63        102        94        89        35        35        69        84        89        39        21        22        38        71        96        6        56         
 90        70        28        28        71        63        94        29        61        61        19        38        82        94        11        77        11        10000000        19        54        78        82        74        91        59        104        98        93        40        45        77        92        93        34        16        30        33        80        102        16        64         
 91        74        10        26        86        49        91        39        58        70        15        22        73        99        16        62        9        19        10000000        65        94        76        85        83        71        107        97        93        38        31        68        83        93        48        31        23        47        69        99        4        56         
 54        31        68        46        27        78        67        26        46        11        72        69        76        47        65        88        57        54        65        10000000        36        68        20        79        6        61        66        58        41        66        69        81        58        20        38        51        22        81        72        63        63         
 80        61        99        79        9        113        97        57        81        42        97        103        111        64        89        124        85        78        94        36        10000000        101        30        113        30        81        93        85        76        101        104        115        85        47        64        84        47        116        100        91        98         
 34        41        69        54        93        40        20        63        23        59        90        59        13        54        88        39        75        82        76        68        101        10000000        73        12        71        50        30        31        42        48        11        14        31        71        74        53        73        23        27        77        21         
 50        32        87        64        24        92        67        46        56        17        93        87        84        35        85        101        77        74        85        20        30        73        10000000        84        15        51        63        54        57        83        77        87        54        40        58        69        42        90        70        83        74         
 42        52        75        63        105        41        25        74        34        71        97        64        11        64        96        37        83        91        83        79        113        12        84        10000000        83        57        35        39        52        53        15        3        39        82        84        61        84        20        30        84        27         
 55        33        74        52        22        83        69        32        51        13        78        76        80        45        71        94        63        59        71        6        30        71        15        83        10000000        60        67        59        47        72        74        85        59        25        43        57        26        86        74        69        68         
 17        34        103        81        75        87        32        76        51        50        119        97        63        16        114        89        102        104        107        61        81        50        51        57        60        10000000        22        19        69        88        60        60        19        77        90        84        79        73        30        106        66         
 13        35        92        72        86        69        10        73        39        55        111        84        42        33        107        69        94        98        97        66        93        30        63        35        67        22        10000000        8        59        74        40        38        8        77        87        74        80        52        8        97        48         
 4        27        88        67        78        68        14        66        35        47        106        81        44        26        101        70        89        93        93        58        85        31        54        39        59        19        8        10000000        54        71        41        42        0        70        80        69        72        54        16        92        47         
 53        37        35        13        68        37        54        24        21        40        51        31        45        62        48        49        35        40        38        41        76        42        57        52        47        69        59        54        10000000        25        38        53        54        34        32        15        36        45        62        38        27         
 71        61        22        23        92        18        66        44        37        65        46        11        43        84        46        32        35        45        31        66        101        48        83        53        72        88        74        71        25        10000000        39        53        71        56        46        18        56        38        74        33        27         
 43        46        60        48        96        29        31        61        23        62        83        50        7        63        81        29        69        77        68        69        104        11        77        15        74        60        40        41        38        39        10000000        15        41        70        70        47        72        14        38        69        13         
 45        55        74        63        107        40        28        75        36        73        97        64        10        67        96        34        84        92        83        81        115        14        87        3        85        60        38        42        53        53        15        10000000        42        84        85        62        86        18        33        84        27         
 4        27        88        67        78        68        14        66        35        47        106        81        44        26        101        70        89        93        93        58        85        31        54        39        59        19        8        0        54        71        41        42        10000000        70        80        69        72        54        16        92        47         
 67        44        52        33        39        71        76        11        48        28        53        56        77        64        46        83        39        34        48        20        47        71        40        82        25        77        77        70        34        56        70        84        70        10000000        18        39        2        79        83        45        61         
 77        56        37        24        56        63        83        14        51        45        35        43        77        78        28        76        21        16        31        38        64        74        58        84        43        90        87        80        32        46        70        85        80        18        10000000        28        17        76        90        27        59         
 68        52        20        5        76        35        68        27        35        52        37        18        52        77        35        48        22        30        23        51        84        53        69        61        57        84        74        69        15        18        47        62        69        39        28        10000000        39        50        75        23        34         
 69        46        52        34        39        72        78        12        50        30        52        56        78        66        44        84        38        33        47        22        47        73        42        84        26        79        80        72        36        56        72        86        72        2        17        39        10000000        80        85        44        62         
 56        60        60        53        107        22        42        69        35        74        83        48        10        76        83        17        71        80        69        81        116        23        90        20        86        73        52        54        45        38        14        18        54        79        76        50        80        10000000        49        70        18         
 20        41        93        74        93        67        8        77        41        62        113        84        38        40        109        66        96        102        99        72        100        27        70        30        74        30        8        16        62        74        38        33        16        83        90        75        85        49        10000000        99        47         
 91        73        13        25        83        51        91        37        58        67        14        25        74        97        13        64        6        16        4        63        91        77        83        84        69        106        97        92        38        33        69        84        92        45        27        23        44        70        99        10000000        57         
 48        45        48        36        90        21        40        51        18        57        70        38        18        65        69        27        56        64        56        63        98        21        74        27        68        66        48        47        27        27        13        27        47        61        59        34        62        18        47        57        10000000         
 DEMAND_SECTION: 
 0   266   0 
 1   10   2 
 2   9   5 
 3   3   4 
 4   3   11 
 5   15   0 
 6   8   1 
 7   1   0 
 8   2   1 
 9   1   0 
 10   16   0 
 11   8   2 
 12   2   1 
 13   7   10 
 14   4   14 
 15   5   0 
 16   14   3 
 17   5   2 
 18   8   11 
 19   2   6 
 20   15   0 
 21   14   3 
 22   7   4 
 23   1   0 
 24   3   10 
 25   16   0 
 26   4   1 
 27   8   4 
 28   4   4 
 29   3   9 
 30   6   0 
 31   6   1 
 32   11   7 
 33   1   1 
 34   4   12 
 35   3   0 
 36   8   1 
 37   5   3 
 38   8   11 
 39   4   13 
 40   12   0 
 41   0   157 
