NAME: ..//instances//e_vigo//TSP_PD_vrp200_60_9_0.00.tspBeta0.000000 
COMMENT: TSPSimoultaneousPickUpandDelivery_2008 
TYPE: TSPDC 
DIMENSION: 62 
CAPACITY: 411 
EDGE_WEIGHT_TYPE: EXPLICIT 
EDGE_WEIGHT_FORMAT: FULL_MATRIX 
EDGE_WEIGHT_SECTION: 
10000000        57        56        77        24        40        78        36        40        61        55        77        46        44        4        23        80        27        65        73        67        87        28        67        38        51        39        50        46        90        72        9        66        31        70        38        18        26        60        25        46        68        54        48        25        101        31        68        23        62        18        57        27        44        9        40        45        3        40        60        28         
 57        10000000        84        21        74        18        68        28        59        89        30        20        35        77        61        47        70        34        81        52        18        50        84        10        71        40        81        53        76        58        71        52        14        66        17        40        72        34        38        82        60        94        79        10        82        64        53        12        75        66        72        60        82        38        66        29        81        59        37        4        47         
 56        84        10000000        94        75        69        48        80        25        5        100        96        50        12        54        42        49        73        16        57        81        78        67        91        18        48        23        34        11        76        37        63        98        26        100        89        68        72        56        57        25        12        5        74        65        88        33        96        73        30        46        31        71        47        57        85        13        58        89        85        81         
 77        21        94        10000000        95        37        67        50        70        98        48        4        44        89        80        63        68        56        87        49        13        39        104        12        84        46        95        61        87        47        72        72        24        80        22        61        92        55        40        101        69        103        89        29        102        49        66        17        96        70        90        66        103        47        86        50        94        79        57        18        68         
 24        74        75        95        10000000        59        102        48        63        79        63        94        69        63        23        47        104        40        86        97        87        110        17        85        58        74        54        74        65        113        95        24        80        51        84        43        7        41        83        24        68        86        74        66        16        124        54        84        3        85        29        80        11        68        18        50        63        21        46        78        31         
 40        18        69        37        59        10000000        63        19        44        74        33        37        25        61        43        30        65        21        68        50        29        55        67        28        55        31        64        42        60        61        63        35        30        49        33        33        55        19        34        64        46        80        65        8        65        70        36        30        59        56        54        50        65        26        49        23        64        42        30        21        35         
 78        68        48        67        102        63        10000000        81        40        49        95        70        38        52        79        55        2        79        33        18        56        36        100        70        52        32        65        28        49        30        11        81        81        55        82        94        95        77        30        92        35        51        44        63        98        42        48        76        101        19        78        22        102        38        85        86        57        81        92        68        92         
 36        28        80        50        48        19        81        10000000        57        85        20        48        43        70        40        38        83        9        83        69        44        74        60        38        64        49        70        58        70        80        80        28        32        57        36        13        46        10        53        60        60        92        76        24        58        88        47        37        49        72        53        66        57        44        44        5        73        37        11        32        19         
 40        59        25        70        63        44        40        57        10000000        30        75        72        25        19        40        20        42        51        27        42        57        61        60        66        15        25        28        14        17        60        32        45        72        16        75        67        56        49        34        52        5        36        21        49        58        73        10        71        62        22        38        18        63        23        45        62        24        43        66        60        61         
 61        89        5        98        79        74        49        85        30        10000000        105        100        54        17        59        47        50        78        17        60        85        81        70        96        23        52        26        38        16        78        38        68        102        30        105        94        72        77        59        60        29        7        9        79        69        90        38        100        77        32        50        34        75        51        62        90        17        62        94        90        86         
 55        30        100        48        63        33        95        20        75        105        10000000        45        58        90        59        58        97        29        101        81        48        81        77        36        84        64        90        75        90        88        96        47        24        77        28        20        63        30        65        79        78        111        96        33        75        94        67        31        65        89        73        83        73        60        63        16        93        57        17        33        32         
 77        20        96        4        94        37        70        48        72        100        45        10000000        46        91        80        64        72        55        90        53        15        43        104        10        86        49        97        63        89        52        76        72        21        82        18        59        92        54        43        101        72        106        91        29        102        53        68        13        95        73        91        69        102        49        86        48        95        79        55        17        67         
 46        35        50        44        69        25        38        43        25        54        58        46        10000000        45        48        24        40        41        45        28        32        41        72        42        40        6        52        18        43        44        37        46        50        37        52        56        64        39        13        66        25        60        45        27        70        55        24        47        69        31        53        25        73        3        54        48        49        49        54        36        55         
 44        77        12        89        63        61        52        70        19        17        90        91        45        10000000        42        32        53        62        25        58        76        78        55        85        6        44        13        31        3        77        42        51        90        14        93        78        56        61        53        45        21        23        11        67        54        90        24        89        61        33        34        32        59        42        45        75        5        46        78        79        70         
 4        61        54        80        23        43        79        40        40        59        59        80        48        42        10000000        24        81        31        64        75        70        89        25        71        36        52        36        51        44        92        72        13        70        29        74        42        17        30        62        21        45        66        52        51        22        103        31        72        22        62        14        57        25        46        6        44        43        4        44        64        31         
 23        47        42        63        47        30        55        38        20        47        58        64        24        32        24        10000000        57        31        46        51        51        66        48        56        26        28        34        27        32        68        49        26        59        19        63        47        41        30        38        42        24        54        38        37        46        79        9        59        46        40        29        34        49        22        31        43        35        26        47        50        41         
 80        70        49        68        104        65        2        83        42        50        97        72        40        53        81        57        10000000        81        34        19        57        37        102        72        54        34        66        30        51        31        12        83        83        57        84        96        97        79        32        93        37        51        45        65        100        42        50        78        103        21        80        24        104        40        86        88        58        83        94        69        94         
 27        34        73        56        40        21        79        9        51        78        29        55        41        62        31        31        81        10000000        77        69        49        76        51        45        56        47        61        54        63        82        77        19        41        49        45        16        38        2        53        51        54        85        70        28        49        90        41        44        41        68        44        62        48        41        35        13        65        28        16        38        14         
 65        81        16        87        86        68        33        83        27        17        101        90        45        25        64        46        34        77        10000000        45        75        66        80        87        29        42        38        28        22        62        22        71        95        35        97        93        79        75        47        70        23        18        14        72        78        74        37        92        84        17        58        21        84        43        68        88        28        67        93        82        87         
 73        52        57        49        97        50        18        69        42        60        81        53        28        58        75        51        19        69        45        10000000        39        21        98        53        56        23        69        28        56        19        26        74        65        57        66        82        91        67        16        91        38        63        53        48        96        31        46        59        97        28        78        27        100        30        81        73        63        76        80        51        83         
 67        18        81        13        87        29        56        44        57        85        48        15        32        76        70        51        57        49        75        39        10000000        33        95        15        72        34        83        48        75        41        61        63        27        68        28        57        83        47        28        91        57        90        76        21        93        46        54        21        88        58        80        53        94        35        77        46        81        70        54        15        62         
 87        50        78        39        110        55        36        74        61        81        81        43        41        78        89        66        37        76        66        21        33        10000000        114        47        76        38        89        47        76        9        46        86        60        76        60        87        105        74        28        107        57        84        73        51        111        14        63        53        110        49        94        47        114        44        96        77        83        90        84        48        90         
 28        84        67        104        17        67        100        60        60        70        77        104        72        55        25        48        102        51        80        98        95        114        10000000        95        51        76        44        72        57        116        92        33        92        46        96        58        14        52        86        10        65        76        66        75        2        127        53        95        14        82        22        78        6        70        18        63        53        25        60        88        46         
 67        10        91        12        85        28        70        38        66        96        36        10        42        85        71        56        72        45        87        53        15        47        95        10000000        79        45        90        59        84        56        74        62        13        75        13        49        82        44        41        92        67        101        86        20        92        59        61        6        86        71        82        65        92        44        77        38        89        70        45        7        57         
 38        71        18        84        58        55        52        64        15        23        84        86        40        6        36        26        54        56        29        56        72        76        51        79        10000000        40        13        29        7        75        43        45        84        8        87        72        51        55        50        42        19        30        16        61        50        88        18        83        56        33        30        31        55        37        40        69        10        40        72        73        64         
 51        40        48        46        74        31        32        49        25        52        64        49        6        44        52        28        34        47        42        23        34        38        76        45        40        10000000        53        14        42        40        32        51        54        39        56        62        69        45        10        70        23        57        43        32        74        51        25        50        74        26        57        21        77        7        59        54        49        54        60        40        61         
 39        81        23        95        54        64        65        70        28        26        90        97        52        13        36        34        66        61        38        69        83        89        44        90        13        53        10000000        42        16        88        54        47        93        15        97        76        47        60        62        34        32        32        24        71        43        101        29        93        52        45        25        44        49        49        37        74        9        39        76        83        66         
 50        53        34        61        74        42        28        58        14        38        75        63        18        31        51        27        30        54        28        28        48        47        72        59        29        14        42        10000000        29        47        23        53        67        29        70        70        67        52        22        65        10        43        29        45        70        59        20        64        72        15        51        8        74        16        56        63        36        53        68        54        66         
 46        76        11        87        65        60        49        70        17        16        90        89        43        3        44        32        51        63        22        56        75        76        57        84        7        42        16        29        10000000        74        39        53        89        15        92        78        58        61        51        48        19        22        9        66        56        87        24        88        63        30        36        29        62        40        47        75        8        47        79        77        71         
 90        58        76        47        113        61        30        80        60        78        88        52        44        77        92        68        31        82        62        19        41        9        116        56        75        40        88        47        74        10000000        41        90        68        76        68        94        108        80        31        109        56        80        71        57        114        13        64        62        113        46        96        45        117        46        98        83        82        93        91        56        96         
 72        71        37        72        95        63        11        80        32        38        96        76        37        42        72        49        12        77        22        26        61        46        92        74        43        32        54        23        39        41        10000000        76        85        47        86        92        89        75        33        83        27        39        33        64        90        53        41        80        94        10        70        15        95        36        77        85        46        74        91        71        89         
 9        52        63        72        24        35        81        28        45        68        47        72        46        51        13        26        83        19        71        74        63        86        33        62        45        51        47        53        53        90        76        10000000        59        38        63        30        20        19        59        32        50        75        61        43        31        100        35        62        24        66        26        61        30        45        16        32        53        9        31        55        19         
 66        14        98        24        80        30        81        32        72        102        24        21        50        90        70        59        83        41        95        65        27        60        92        13        84        54        93        67        89        68        85        59        10000000        79        4        40        78        40        52        91        74        108        93        23        90        72        66        7        81        80        82        74        89        52        75        31        94        68        37        14        50         
 31        66        26        80        51        49        55        57        16        30        77        82        37        14        29        19        57        49        35        57        68        76        46        75        8        39        15        29        15        76        47        38        79        10000000        82        64        44        47        48        37        21        37        23        56        44        88        14        78        49        37        24        33        49        34        33        62        16        32        65        68        56         
 70        17        100        22        84        33        82        36        75        105        28        18        52        93        74        63        84        45        97        66        28        60        96        13        87        56        97        70        92        68        86        63        4        82        10000000        44        83        44        53        95        76        111        96        26        94        71        69        6        86        82        86        76        93        54        79        35        97        72        41        16        54         
 38        40        89        61        43        33        94        13        67        94        20        59        56        78        42        47        96        16        93        82        57        87        58        49        72        62        76        70        78        94        92        30        40        64        44        10000000        44        18        66        60        71        101        86        37        56        101        57        46        45        84        56        78        53        56        45        11        80        39        4        43        12         
 18        72        68        92        7        55        95        46        56        72        63        92        64        56        17        41        97        38        79        91        83        105        14        82        51        69        47        67        58        108        89        20        78        44        83        44        10000000        38        77        18        62        79        67        63        12        119        48        82        5        79        23        74        10        62        11        49        56        15        46        75        31         
 26        34        72        55        41        19        77        10        49        77        30        54        39        61        30        30        79        2        75        67        47        74        52        44        55        45        60        52        61        80        75        19        40        47        44        18        38        10000000        51        51        53        83        68        26        49        89        39        44        42        66        44        60        49        39        35        14        64        28        17        37        16         
 60        38        56        40        83        34        30        53        34        59        65        43        13        53        62        38        32        53        47        16        28        28        86        41        50        10        62        22        51        31        33        59        52        48        53        66        77        51        10000000        79        32        64        51        33        84        42        35        47        82        31        66        26        86        16        68        57        58        62        64        38        67         
 25        82        57        101        24        64        92        60        52        60        79        101        66        45        21        42        93        51        70        91        91        107        10        92        42        70        34        65        48        109        83        32        91        37        95        60        18        51        79        10000000        57        66        57        73        9        121        45        94        21        74        13        70        16        64        16        64        43        23        62        85        48         
 46        60        25        69        68        46        35        60        5        29        78        72        25        21        45        24        37        54        23        38        57        57        65        67        19        23        32        10        19        56        27        50        74        21        76        71        62        53        32        57        10000000        35        20        50        64        69        15        71        67        17        44        13        68        22        51        65        26        48        70        61        65         
 68        94        12        103        86        80        51        92        36        7        111        106        60        23        66        54        51        85        18        63        90        84        76        101        30        57        32        43        22        80        39        75        108        37        111        101        79        83        64        66        35        10000000        16        85        75        92        45        106        83        35        56        38        81        57        68        97        23        69        101        96        93         
 54        79        5        89        74        65        44        76        21        9        96        91        45        11        52        38        45        70        14        53        76        73        66        86        16        43        24        29        9        71        33        61        93        23        96        86        67        68        51        57        20        16        10000000        70        65        83        29        91        72        25        45        26        71        42        56        81        14        56        85        81        78         
 48        10        74        29        66        8        63        24        49        79        33        29        27        67        51        37        65        28        72        48        21        51        75        20        61        32        71        45        66        57        64        43        23        56        26        37        63        26        33        73        50        85        70        10000000        73        65        43        23        67        58        62        52        73        29        57        26        71        50        34        13        41         
 25        82        65        102        16        65        98        58        58        69        75        102        70        54        22        46        100        49        78        96        93        111        2        92        50        74        43        70        56        114        90        31        90        44        94        56        12        49        84        9        64        75        65        73        10000000        125        51        93        13        80        20        76        6        68        16        61        52        23        59        85        44         
 101        64        88        49        124        70        42        88        73        90        94        53        55        90        103        79        42        90        74        31        46        14        127        59        88        51        101        59        87        13        53        100        72        88        71        101        119        89        42        121        69        92        83        65        125        10000000        76        65        124        58        108        58        128        57        110        91        95        104        98        61        105         
 31        53        33        66        54        36        48        47        10        38        67        68        24        24        31        9        50        41        37        46        54        63        53        61        18        25        29        20        24        64        41        35        66        14        69        57        48        39        35        45        15        45        29        43        51        76        10000000        65        53        32        32        26        55        21        37        52        28        33        56        55        51         
 68        12        96        17        84        30        76        37        71        100        31        13        47        89        72        59        78        44        92        59        21        53        95        6        83        50        93        64        88        62        80        62        7        78        6        46        82        44        47        94        71        106        91        23        93        65        65        10000000        85        76        84        71        92        49        78        36        93        71        43        10        55         
 23        75        73        96        3        59        101        49        62        77        65        95        69        61        22        46        103        41        84        97        88        110        14        86        56        74        52        72        63        113        94        24        81        49        86        45        5        42        82        21        67        83        72        67        13        124        53        85        10000000        84        27        79        8        67        16        51        60        20        48        79        33         
 62        66        30        70        85        56        19        72        22        32        89        73        31        33        62        40        21        68        17        28        58        49        82        71        33        26        45        15        30        46        10        66        80        37        82        84        79        66        31        74        17        35        25        58        80        58        32        76        84        10000000        60        6        85        30        68        77        38        65        83        66        80         
 18        72        46        90        29        54        78        53        38        50        73        91        53        34        14        29        80        44        58        78        80        94        22        82        30        57        25        51        36        96        70        26        82        24        86        56        23        44        66        13        44        56        45        62        20        108        32        84        27        60        10000000        56        25        51        13        58        33        17        58        75        45         
 57        60        31        66        80        50        22        66        18        34        83        69        25        32        57        34        24        62        21        27        53        47        78        65        31        21        44        8        29        45        15        61        74        33        76        78        74        60        26        70        13        38        26        52        76        58        26        71        79        6        56        10000000        80        23        63        71        37        59        77        61        74         
 27        82        71        103        11        65        102        57        63        75        73        102        73        59        25        49        104        48        84        100        94        114        6        92        55        77        49        74        62        117        95        30        89        49        93        53        10        49        86        16        68        81        71        73        6        128        55        92        8        85        25        80        10000000        71        18        59        58        24        56        85        41         
 44        38        47        47        68        26        38        44        23        51        60        49        3        42        46        22        40        41        43        30        35        44        70        44        37        7        49        16        40        46        36        45        52        34        54        56        62        39        16        64        22        57        42        29        68        57        21        49        67        30        51        23        71        10000000        52        48        46        47        55        39        54         
 9        66        57        86        18        49        85        44        45        62        63        86        54        45        6        31        86        35        68        81        77        96        18        77        40        59        37        56        47        98        77        16        75        33        79        45        11        35        68        16        51        68        56        57        16        110        37        78        16        68        13        63        18        52        10000000        48        45        7        47        70        33         
 40        29        85        50        50        23        86        5        62        90        16        48        48        75        44        43        88        13        88        73        46        77        63        38        69        54        74        63        75        83        85        32        31        62        35        11        49        14        57        64        65        97        81        26        61        91        52        36        51        77        58        71        59        48        48        10000000        78        41        8        33        19         
 45        81        13        94        63        64        57        73        24        17        93        95        49        5        43        35        58        65        28        63        81        83        53        89        10        49        9        36        8        82        46        53        94        16        97        80        56        64        58        43        26        23        14        71        52        95        28        93        60        38        33        37        58        46        45        78        10000000        46        81        83        72         
 3        59        58        79        21        42        81        37        43        62        57        79        49        46        4        26        83        28        67        76        70        90        25        70        40        54        39        53        47        93        74        9        68        32        72        39        15        28        62        23        48        69        56        50        23        104        33        71        20        65        17        59        24        47        7        41        46        10000000        41        63        28         
 40        37        89        57        46        30        92        11        66        94        17        55        54        78        44        47        94        16        93        80        54        84        60        45        72        60        76        68        79        91        91        31        37        65        41        4        46        17        64        62        70        101        85        34        59        98        56        43        48        83        58        77        56        55        47        8        81        41        10000000        40        15         
 60        4        85        18        78        21        68        32        60        90        33        17        36        79        64        50        69        38        82        51        15        48        88        7        73        40        83        54        77        56        71        55        14        68        16        43        75        37        38        85        61        96        81        13        85        61        55        10        79        66        75        61        85        39        70        33        83        63        40        10000000        50         
 28        47        81        68        31        35        92        19        61        86        32        67        55        70        31        41        94        14        87        83        62        90        46        57        64        61        66        66        71        96        89        19        50        56        54        12        31        16        67        48        65        93        78        41        44        105        51        55        33        80        45        74        41        54        33        19        72        28        15        50        10000000         
 DEMAND_SECTION: 
 0   411   0 
 1   4   0 
 2   2   0 
 3   6   9 
 4   3   11 
 5   11   0 
 6   8   1 
 7   6   3 
 8   8   11 
 9   1   0 
 10   12   0 
 11   12   2 
 12   12   7 
 13   2   3 
 14   1   1 
 15   9   0 
 16   14   3 
 17   12   7 
 18   8   11 
 19   2   6 
 20   19   0 
 21   11   2 
 22   9   6 
 23   1   0 
 24   3   10 
 25   8   0 
 26   4   1 
 27   10   6 
 28   5   7 
 29   1   3 
 30   14   0 
 31   9   2 
 32   6   4 
 33   6   8 
 34   4   12 
 35   15   0 
 36   1   0 
 37   3   1 
 38   3   4 
 39   3   10 
 40   16   0 
 41   14   3 
 42   6   3 
 43   2   3 
 44   3   12 
 45   7   0 
 46   11   2 
 47   8   5 
 48   4   5 
 49   1   2 
 50   2   0 
 51   13   3 
 52   3   1 
 53   1   0 
 54   3   9 
 55   18   0 
 56   12   3 
 57   6   3 
 58   1   0 
 59   1   0 
 60   11   0 
 61   0   205 
