NAME: ..//instances//e_vigo//TSP_PD_vrp200_60_8_0.00.tspBeta0.000000 
COMMENT: TSPSimoultaneousPickUpandDelivery_2008 
TYPE: TSPDC 
DIMENSION: 62 
CAPACITY: 360 
EDGE_WEIGHT_TYPE: EXPLICIT 
EDGE_WEIGHT_FORMAT: FULL_MATRIX 
EDGE_WEIGHT_SECTION: 
10000000        52        18        63        12        65        28        25        93        4        38        72        10        62        49        38        41        78        88        57        65        54        38        29        32        9        74        77        10        83        94        77        55        60        50        80        79        71        19        75        93        78        24        70        32        67        64        11        26        98        85        81        57        111        21        70        28        87        56        22        12         
 52        10000000        56        87        40        14        27        64        85        48        66        80        52        11        77        15        78        81        52        74        65        13        51        23        26        60        67        35        57        57        64        32        30        34        82        78        34        70        34        91        59        27        57        18        47        16        13        57        31        76        34        39        80        92        41        58        41        68        58        47        57         
 18        56        10000000        45        22        68        29        8        78        18        20        55        29        64        30        46        24        62        82        39        49        55        23        37        31        21        60        74        10        73        85        75        49        54        32        64        77        55        23        57        86        82        6        75        19        72        66        9        40        87        89        78        38        97        37        57        19        75        41        11        8         
 63        87        45        10000000        64        94        63        39        54        62        25        24        73        90        15        82        26        33        86        14        34        79        35        75        62        64        44        87        54        69        81        91        64        65        16        39        91        36        63        16        85        107        39        102        41        100        92        52        81        74        112        89        7        77        81        49        48        64        34        46        51         
 12        40        22        64        10000000        53        16        30        87        8        39        69        17        49        50        27        46        74        77        56        59        42        33        17        21        21        68        65        18        73        84        65        44        50        53        74        67        66        7        74        83        66        25        58        27        55        51        18        18        89        73        70        57        103        17        62        21        79        50        18        19         
 65        14        68        94        53        10000000        39        75        83        61        75        84        66        4        85        29        88        83        43        80        68        15        60        36        37        74        68        25        70        52        56        21        32        33        91        79        23        72        47        95        51        14        68        9        57        7        2        69        45        70        21        29        87        87        55        58        51        65        62        58        70         
 28        27        29        63        16        39        10000000        37        76        24        40        62        33        35        51        19        51        66        61        52        50        26        28        12        5        37        56        49        31        58        68        49        28        34        56        65        51        56        9        70        67        53        30        45        23        42        37        31        22        75        59        53        56        89        28        50        16        65        41        20        31         
 25        64        8        39        30        75        37        10000000        77        25        16        52        35        72        24        54        16        59        86        36        48        61        24        45        38        26        60        80        15        76        88        81        54        59        25        62        83        54        31        52        89        89        7        82        22        79        73        14        48        88        96        83        33        98        45        59        25        77        41        17        13         
 93        85        78        54        87        83        76        77        10000000        91        63        30        103        81        61        90        74        21        51        45        29        72        56        87        71        99        19        63        88        34        39        69        54        50        66        16        67        23        81        41        46        92        73        92        62        90        81        87        98        25        94        62        53        23        103        27        66        21        37        71        86         
 4        48        18        62        8        61        24        25        91        10000000        37        70        12        58        48        34        42        76        84        56        62        50        35        25        28        13        71        73        12        79        90        73        51        57        50        77        75        68        15        74        89        74        23        66        29        63        60        12        24        95        81        77        56        107        19        67        25        84        53        19        13         
 38        66        20        25        39        75        40        16        63        37        10000000        36        49        71        11        59        15        44        78        20        34        60        16        51        40        41        46        74        30        65        77        77        49        52        16        47        78        40        38        37        80        89        14        83        18        80        73        28        57        75        95        77        18        84        56        46        25        64        28        22        27         
 72        80        55        24        69        84        62        52        30        70        36        10000000        82        81        32        80        45        9        67        16        16        70        36        74        59        76        22        72        65        49        59        77        52        51        36        15        76        14        65        14        64        96        49        93        42        90        82        63        84        50        100        72        23        53        86        30        49        41        22        51        62         
 10        52        29        73        17        66        33        35        103        12        49        82        10000000        63        59        38        51        89        94        68        74        57        47        30        38        13        83        81        20        90        101        81        61        67        60        89        83        81        24        85        100        78        34        70        41        67        65        21        23        106        86        86        67        119        14        79        37        96        65        32        22         
 62        11        64        90        49        4        35        72        81        58        71        81        63        10000000        82        26        84        81        43        77        66        12        56        33        33        71        65        25        66        51        56        21        29        31        87        77        24        69        43        92        51        18        65        12        53        9        2        66        42        69        24        30        83        86        52        56        48        63        59        54        66         
 49        77        30        15        50        85        51        24        61        48        11        32        59        82        10000000        70        13        41        84        16        35        70        25        62        51        50        47        82        39        69        81        85        57        60        6        45        86        39        49        29        84        99        25        93        29        90        83        38        68        77        105        85        9        83        67        49        36        66        32        33        37         
 38        15        46        82        27        29        19        54        90        34        59        80        38        26        70        10000000        69        83        64        71        66        24        47        9        21        47        71        48        45        66        74        46        36        42        75        81        48        72        23        89        71        41        48        32        42        30        28        45        16        84        48        53        75        100        26        63        35        76        58        38        45         
 41        78        24        26        46        88        51        16        74        42        15        45        51        84        13        69        10000000        54        92        29        47        73        30        61        52        40        59        89        31        79        91        91        63        66        10        58        92        52        47        41        94        102        21        95        32        93        86        30        64        89        108        92        22        96        61        60        37        77        42        31        29         
 78        81        62        33        74        83        66        59        21        76        44        9        89        81        41        83        54        10000000        62        25        16        70        41        78        62        83        17        68        72        43        52        74        52        50        46        7        73        11        70        21        58        95        56        92        47        90        81        70        88        42        98        69        33        44        91        26        53        34        25        57        70         
 88        52        82        86        77        43        61        86        51        84        78        67        94        43        84        64        92        62        10000000        72        53        40        63        67        56        97        45        17        89        19        15        23        34        28        90        55        20        52        70        80        9        47        79        50        64        49        42        87        78        31        46        14        81        47        87        37        63        31        52        71        87         
 57        74        39        14        56        80        52        36        45        56        20        16        68        77        16        71        29        25        72        10000000        20        65        24        64        50        61        32        73        49        56        67        77        50        51        21        29        77        24        53        18        72        94        34        89        30        86        78        48        72        62        99        75        9        67        73        36        37        51        20        38        47         
 65        65        49        34        59        68        50        48        29        62        34        16        74        66        35        66        47        16        53        20        10000000        54        27        62        46        70        12        56        59        36        47        61        37        36        41        15        61        6        54        28        51        81        44        77        33        75        66        57        72        42        85        57        30        49        76        16        38        31        9        43        57         
 54        13        55        79        42        15        26        61        72        50        60        70        57        12        70        24        73        70        40        65        54        10000000        45        28        23        63        55        25        58        44        51        23        18        21        76        66        25        59        35        81        47        29        54        24        42        21        13        57        39        63        35        29        72        79        48        46        37        55        48        44        57         
 38        51        23        35        33        60        28        24        56        35        16        36        47        56        25        47        30        41        63        24        27        45        10000000        40        26        43        37        58        32        51        63        61        33        36        31        42        62        33        29        42        65        74        18        68        6        65        57        31        48        64        79        61        28        74        51        35        13        53        18        16        30         
 29        23        37        75        17        36        12        45        87        25        51        74        30        33        62        9        61        78        67        64        62        28        40        10000000        16        38        68        52        36        66        76        51        36        42        66        77        53        68        14        82        73        49        39        40        34        38        35        36        12        84        56        57        67        99        21        60        27        75        53        30        36         
 32        26        31        62        21        37        5        38        71        28        40        59        38        33        51        21        52        62        56        50        46        23        26        16        10000000        41        52        45        35        53        63        45        23        29        55        61        47        52        14        67        62        51        31        44        21        41        35        34        27        70        57        49        54        84        33        45        15        60        37        21        34         
 9        60        21        64        21        74        37        26        99        13        41        76        13        71        50        47        40        83        97        61        70        63        43        38        41        10000000        80        86        11        91        102        86        63        69        50        85        88        76        28        77        102        87        27        78        38        76        73        13        34        106        94        90        58        117        26        77        35        95        62        28        14         
 74        67        60        44        68        68        56        60        19        71        46        22        83        65        47        71        59        17        45        32        12        55        37        68        52        80        10000000        51        69        26        37        57        37        34        53        12        56        9        62        36        42        79        55        77        43        75        65        68        79        30        82        52        41        38        84        9        47        19        19        52        67         
 77        35        74        87        65        25        49        80        63        73        74        72        81        25        82        48        89        68        17        73        56        25        58        52        45        86        51        10000000        79        30        32        6        26        22        88        63        4        58        58        85        26        30        72        32        58        31        24        78        64        47        31        4        81        63        73        43        55        43        53        63        78         
 10        57        10        54        18        70        31        15        88        12        30        65        20        66        39        45        31        72        89        49        59        58        32        36        35        11        69        79        10000000        81        92        80        55        60        40        74        81        65        23        66        93        84        16        76        27        73        68        1        35        95        90        83        47        107        31        66        26        84        51        18        2         
 83        57        73        69        73        52        58        76        34        79        65        49        90        51        69        66        79        43        19        56        36        44        51        66        53        91        26        30        81        10000000        12        36        30        25        76        37        34        35        66        62        16        60        69        61        54        59        51        80        79        18        61        29        65        35        86        20        55        13        37        63        79         
 94        64        85        81        84        56        68        88        39        90        77        59        101        56        81        74        91        52        15        67        47        51        63        76        63        102        37        32        92        12        10000000        37        40        34        87        46        35        45        76        73        7        61        81        64        66        63        55        91        88        16        61        29        77        32        96        32        67        19        49        74        91         
 77        32        75        91        65        21        49        81        69        73        77        77        81        21        85        46        91        74        23        77        61        23        61        51        45        86        57        6        80        36        37        10000000        28        26        92        69        3        63        58        89        31        24        74        27        60        26        20        79        62        52        25        9        85        69        71        48        57        49        57        64        79         
 55        30        49        64        44        32        28        54        54        51        49        52        61        29        57        36        63        52        34        50        37        18        33        36        23        63        37        26        55        30        40        28        10000000        6        63        48        29        41        37        64        39        44        47        41        32        38        29        54        48        48        49        29        57        64        56        28        30        39        31        38        54         
 60        34        54        65        50        33        34        59        50        57        52        51        67        31        60        42        66        50        28        51        36        21        36        42        29        69        34        22        60        25        34        26        6        10000000        66        46        26        39        43        64        33        45        51        43        36        40        31        59        54        43        49        25        59        58        62        25        35        34        31        43        59         
 50        82        32        16        53        91        56        25        66        50        16        36        60        87        6        75        10        46        90        21        41        76        31        66        55        50        53        88        40        76        87        92        63        66        10000000        50        92        45        53        31        91        105        28        99        34        96        88        39        71        83        110        91        13        89        69        56        40        72        38        37        38         
 80        78        64        39        74        79        65        62        16        77        47        15        89        77        45        81        58        7        55        29        15        66        42        77        61        85        12        63        74        37        46        69        48        46        50        10000000        68        9        69        28        52        90        58        88        48        86        77        72        87        36        93        63        38        38        91        21        53        27        24        58        71         
 79        34        77        91        67        23        51        83        67        75        78        76        83        24        86        48        92        73        20        77        61        25        62        53        47        88        56        4        81        34        35        3        29        26        92        68        10000000        62        60        89        29        26        75        30        61        29        23        81        64        50        27        6        85        67        74        47        58        47        57        66        81         
 71        70        55        36        66        72        56        54        23        68        40        14        81        69        39        72        52        11        52        24        6        59        33        68        52        76        9        58        65        35        45        63        41        39        45        9        62        10000000        60        28        50        84        50        81        39        79        70        64        78        38        87        59        33        44        82        16        44        28        15        49        63         
 19        34        23        63        7        47        9        31        81        15        38        65        24        43        49        23        47        70        70        53        54        35        29        14        14        28        62        58        23        66        76        58        37        43        53        69        60        60        10000000        71        75        60        26        52        23        50        45        23        19        83        67        62        55        96        22        56        16        72        45        16        23         
 75        91        57        16        74        95        70        52        41        74        37        14        85        92        29        89        41        21        80        18        28        81        42        82        67        77        36        85        66        62        73        89        64        64        31        28        89        28        71        10000000        78        108        51        104        48        102        93        65        90        63        113        86        19        64        91        43        55        54        33        56        64         
 93        59        86        85        83        51        67        89        46        89        80        64        100        51        84        71        94        58        9        72        51        47        65        73        62        102        42        26        93        16        7        31        39        33        91        52        29        50        75        78        10000000        55        82        58        67        57        50        92        85        24        55        22        81        39        94        36        67        26        53        75        91         
 78        27        82        107        66        14        53        89        92        74        89        96        78        18        99        41        102        95        47        94        81        29        74        49        51        87        79        30        84        60        61        24        44        45        105        90        26        84        60        108        55        10000000        82        9        71        11        16        83        56        77        7        33        101        93        66        69        65        73        75        72        84         
 24        57        6        39        25        68        30        7        73        23        14        49        34        65        25        48        21        56        79        34        44        54        18        39        31        27        55        72        16        69        81        74        47        51        28        58        75        50        26        51        82        82        10000000        75        15        72        66        14        43        82        89        76        33        92        42        53        17        71        36        11        14         
 70        18        75        102        58        9        45        82        92        66        83        93        70        12        93        32        95        92        50        89        77        24        68        40        44        78        77        32        76        61        64        27        41        43        99        88        30        81        52        104        58        9        75        10000000        64        3        11        75        47        78        16        36        95        95        57        68        59        73        71        65        76         
 32        47        19        41        27        57        23        22        62        29        18        42        41        53        29        42        32        47        64        30        33        42        6        34        21        38        43        58        27        54        66        60        32        36        34        48        61        39        23        48        67        71        15        64        10000000        62        54        26        42        68        77        61        33        79        44        39        7        57        24        10        25         
 67        16        72        100        55        7        42        79        90        63        80        90        67        9        90        30        93        90        49        86        75        21        65        38        41        76        75        31        73        59        63        26        38        40        96        86        29        79        50        102        57        11        72        3        62        10000000        9        72        45        77        18        35        93        93        55        65        56        72        69        62        73         
 64        13        66        92        51        2        37        73        81        60        73        82        65        2        83        28        86        81        42        78        66        13        57        35        35        73        65        24        68        51        55        20        29        31        88        77        23        70        45        93        50        16        66        11        54        9        10000000        68        44        69        22        28        85        85        54        56        49        63        60        56        68         
 11        57        9        52        18        69        31        14        87        12        28        63        21        66        38        45        30        70        87        48        57        57        31        36        34        13        68        78        1        80        91        79        54        59        39        72        81        64        23        65        92        83        14        75        26        72        68        10000000        36        94        90        82        46        105        31        65        25        83        49        17        1         
 26        31        40        81        18        45        22        48        98        24        57        84        23        42        68        16        64        88        78        72        72        39        48        12        27        34        79        64        35        79        88        62        48        54        71        87        64        78        19        90        85        56        43        47        42        45        44        36        10000000        96        63        68        74        111        10        72        35        87        63        35        36         
 98        76        87        74        89        70        75        88        25        95        75        50        106        69        77        84        89        42        31        62        42        63        64        84        70        106        30        47        95        18        16        52        48        43        83        36        50        38        83        63        24        77        82        78        68        77        69        94        96        10000000        77        44        71        16        103        29        70        11        47        77        94         
 85        34        89        112        73        21        59        96        94        81        95        100        86        24        105        48        108        98        46        99        85        35        79        56        57        94        82        31        90        61        61        25        49        49        110        93        27        87        67        113        55        7        89        16        77        18        22        90        63        77        10000000        33        106        93        73        72        72        74        80        78        90         
 81        39        78        89        70        29        53        83        62        77        77        72        86        30        85        53        92        69        14        75        57        29        61        57        49        90        52        4        83        29        29        9        29        25        91        63        6        59        62        86        22        33        76        36        61        35        28        82        68        44        33        10000000        83        60        77        43        59        42        55        67        82         
 57        80        38        7        57        87        56        33        53        56        18        23        67        83        9        75        22        33        81        9        30        72        28        67        54        58        41        81        47        65        77        85        57        59        13        38        85        33        55        19        81        101        33        95        33        93        85        46        74        71        106        83        10000000        76        74        45        40        60        29        39        45         
 111        92        97        77        103        87        89        98        23        107        84        53        119        86        83        100        96        44        47        67        49        79        74        99        84        117        38        63        107        35        32        69        64        58        89        38        67        44        96        64        39        93        92        95        79        93        85        105        111        16        93        60        76        10000000        117        41        83        24        56        89        105         
 21        41        37        81        17        55        28        45        103        19        56        86        14        52        67        26        61        91        87        73        76        48        51        21        33        26        84        73        31        86        96        71        56        62        69        91        74        82        22        91        94        66        42        57        44        55        54        31        10        103        73        77        74        117        10000000        78        38        93        67        36        32         
 70        58        57        49        62        58        50        59        27        67        46        30        79        56        49        63        60        26        37        36        16        46        35        60        45        77        9        43        66        20        32        48        28        25        56        21        47        16        56        43        36        69        53        68        39        65        56        65        72        29        72        43        45        41        78        10000000        42        18        18        49        64         
 28        41        19        48        21        51        16        25        66        25        25        49        37        48        36        35        37        53        63        37        38        37        13        27        15        35        47        55        26        55        67        57        30        35        40        53        58        44        16        55        67        65        17        59        7        56        49        25        35        70        72        59        40        83        38        42        10000000        59        29        8        24         
 87        68        75        64        79        65        65        77        21        84        64        41        96        63        66        76        77        34        31        51        31        55        53        75        60        95        19        43        84        13        19        49        39        34        72        27        47        28        72        54        26        73        71        73        57        72        63        83        87        11        74        42        60        24        93        18        59        10000000        36        66        82         
 56        58        41        34        50        62        41        41        37        53        28        22        65        59        32        58        42        25        52        20        9        48        18        53        37        62        19        53        51        37        49        57        31        31        38        24        57        15        45        33        53        75        36        71        24        69        60        49        63        47        80        55        29        56        67        18        29        36        10000000        34        49         
 22        47        11        46        18        58        20        17        71        19        22        51        32        54        33        38        31        57        71        38        43        44        16        30        21        28        52        63        18        63        74        64        38        43        37        58        66        49        16        56        75        72        11        65        10        62        56        17        35        77        78        67        39        89        36        49        8        66        34        10000000        16         
 12        57        8        51        19        70        31        13        86        13        27        62        22        66        37        45        29        70        87        47        57        57        30        36        34        14        67        78        2        79        91        79        54        59        38        71        81        63        23        64        91        84        14        76        25        73        68        1        36        94        90        82        45        105        32        64        24        82        49        16        10000000         
 DEMAND_SECTION: 
 0   360   0 
 1   8   2 
 2   10   6 
 3   8   11 
 4   1   3 
 5   19   0 
 6   8   1 
 7   2   1 
 8   3   4 
 9   3   8 
 10   1   0 
 11   5   1 
 12   5   2 
 13   4   5 
 14   1   3 
 15   11   0 
 16   14   3 
 17   9   6 
 18   8   11 
 19   2   6 
 20   11   0 
 21   1   0 
 22   11   6 
 23   5   6 
 24   3   10 
 25   14   0 
 26   4   1 
 27   11   7 
 28   6   8 
 29   1   0 
 30   8   0 
 31   3   0 
 32   4   2 
 33   1   0 
 34   2   4 
 35   1   0 
 36   6   1 
 37   2   0 
 38   5   6 
 39   3   8 
 40   18   0 
 41   1   0 
 42   2   1 
 43   8   11 
 44   4   15 
 45   1   0 
 46   3   0 
 47   6   3 
 48   5   6 
 49   3   8 
 50   16   0 
 51   12   2 
 52   9   5 
 53   6   7 
 54   1   0 
 55   6   0 
 56   4   1 
 57   11   6 
 58   6   8 
 59   1   3 
 60   13   0 
 61   0   208 
