NAME: ..//instances//e_vigo//TSP_PD_vrp200_60_2_0.00.tspBeta0.000000 
COMMENT: TSPSimoultaneousPickUpandDelivery_2008 
TYPE: TSPDC 
DIMENSION: 62 
CAPACITY: 328 
EDGE_WEIGHT_TYPE: EXPLICIT 
EDGE_WEIGHT_FORMAT: FULL_MATRIX 
EDGE_WEIGHT_SECTION: 
10000000        9        46        34        21        36        35        30        45        16        45        38        64        85        28        55        28        54        56        67        28        61        22        68        36        57        27        55        15        14        73        28        13        60        9        43        25        56        51        38        61        70        30        41        37        53        78        59        49        58        68        54        60        65        67        68        65        30        62        57        25         
 9        10000000        55        26        27        42        44        37        52        23        42        43        72        94        37        57        37        53        65        74        34        70        28        68        33        61        21        60        9        16        74        19        13        67        9        43        32        54        59        47        68        71        30        47        28        61        86        66        57        67        72        63        62        71        76        72        73        26        70        64        28         
 46        55        10000000        80        37        32        12        31        43        35        76        35        45        46        18        69        25        79        10        41        36        17        38        86        71        62        70        54        60        48        92        74        53        37        51        69        33        84        24        18        37        86        61        46        83        25        50        39        9        15        69        8        72        58        22        71        37        69        30        32        52         
 34        26        80        10000000        48        63        70        58        73        47        48        63        95        119        63        72        62        61        90        98        54        95        48        77        39        78        24        80        24        35        81        6        33        91        32        53        53        59        84        72        89        81        44        67        4        84        110        89        82        92        89        88        76        91        102        88        97        32        93        85        47         
 21        27        37        48        10000000        15        31        10        55        7        65        17        70        82        25        72        32        74        45        69        7        54        2        86        57        71        48        67        35        13        92        43        34        63        30        62        5        76        52        38        41        88        50        54        52        35        81        64        36        51        82        44        76        75        57        83        67        51        44        37        44         
 36        42        32        63        15        10000000        31        6        62        20        79        4        72        77        28        82        38        86        37        70        9        48        15        98        71        80        63        74        51        28        104        58        49        65        44        75        11        90        52        40        26        99        63        62        67        21        81        66        27        46        90        37        87        81        48        91        67        66        30        22        56         
 35        44        12        70        31        31        10000000        28        34        27        65        35        41        51        7        58        13        68        22        39        32        26        33        75        59        53        58        46        48        40        82        64        42        34        40        57        28        72        21        9        44        75        49        36        72        33        50        35        19        22        61        20        62        51        33        63        36        57        39        39        40         
 30        37        31        58        10        6        28        10000000        58        14        73        9        69        76        24        77        33        81        38        67        5        48        10        92        65        75        57        70        45        23        99        53        43        62        38        69        5        84        49        37        32        94        58        57        62        25        78        63        28        46        85        37        81        77        49        86        65        60        34        27        50         
 45        52        43        73        55        62        34        58        10000000        49        45        66        22        54        34        28        24        42        50        28        59        44        57        45        45        20        52        13        49        57        51        67        41        21        43        35        55        48        24        25        78        44        34        8        74        66        38        18        51        42        28        48        30        20        56        29        28        47        72        73        28         
 16        23        35        47        7        20        27        14        49        10000000        59        22        64        78        21        65        26        67        44        65        13        52        9        80        51        65        43        61        31        13        86        41        29        58        24        56        9        70        47        34        46        81        44        47        50        38        76        58        36        49        75        43        70        69        56        76        62        46        47        41        37         
 45        42        76        48        65        79        65        73        45        59        10000000        81        66        98        60        28        52        13        86        72        72        85        67        29        10        38        25        44        34        57        33        45        31        66        36        10        69        12        66        60        103        33        16        37        46        93        82        63        83        82        47        84        32        54        95        45        72        17        101        98        25         
 38        43        35        63        17        4        35        9        66        22        81        10000000        76        81        32        86        41        89        40        74        10        52        16        101        73        84        64        78        52        28        107        58        51        69        46        78        13        92        56        44        26        102        66        66        67        23        84        70        31        50        93        40        90        85        52        94        71        68        31        22        59         
 64        72        45        95        70        72        41        69        22        64        66        76        10000000        35        45        43        38        61        48        8        72        38        72        59        67        32        74        23        71        75        64        89        62        8        64        56        68        67        21        32        81        56        56        29        96        70        16        6        53        36        33        46        43        18        49        35        10        69        73        77        50         
 85        94        46        119        82        77        51        76        54        78        98        81        35        10000000        58        78        57        95        41        27        81        29        83        94        97        67        102        58        95        91        99        112        87        33        87        89        78        101        35        47        74        91        86        61        121        65        23        36        50        31        67        41        78        52        33        70        26        98        64        71        78         
 28        37        18        63        25        28        7        24        34        21        60        32        45        58        10000000        57        10        64        28        44        27        33        27        73        54        53        51        47        41        33        80        56        35        38        33        53        23        68        27        13        45        74        44        35        65        34        56        39        23        30        62        26        60        53        40        63        42        51        42        40        35         
 55        57        69        72        72        82        58        77        28        65        28        86        43        78        57        10000000        47        18        77        51        78        72        74        17        34        12        47        20        51        69        24        67        44        46        49        19        74        25        51        51        102        17        28        22        71        91        58        42        77        69        19        75        5        28        83        17        52        40        98        97        30         
 28        37        25        62        32        38        13        33        24        26        52        41        38        57        10        47        10000000        55        34        39        35        35        34        63        47        43        47        37        39        37        70        56        31        32        31        45        31        60        23        10        55        64        36        25        64        44        51        32        31        32        52        32        50        44        44        53        37        45        51        50        27         
 54        53        79        61        74        86        68        81        42        67        13        89        61        95        64        18        55        10000000        88        68        80        85        75        16        22        30        37        38        45        67        21        57        41        62        46        11        76        6        65        62        109        20        24        35        59        98        76        59        86        82        37        86        21        47        96        35        69        29        106        104        30         
 56        65        10        90        45        37        22        38        50        44        86        40        48        41        28        77        34        88        10000000        43        42        13        46        94        81        70        80        61        70        57        101        84        64        40        61        78        40        93        28        27        35        94        70        55        93        24        50        44        9        12        76        2        79        63        12        78        39        79        26        31        61         
 67        74        41        98        69        70        39        67        28        65        72        74        8        27        44        51        39        68        43        10000000        71        31        71        67        72        40        79        31        74        76        72        92        66        7        67        62        67        74        18        31        77        64        61        35        100        65        12        10        49        30        41        41        51        26        42        44        3        74        68        73        54         
 28        34        36        54        7        9        32        5        59        13        72        10        72        81        27        78        35        80        42        71        10000000        53        6        92        63        76        54        72        42        19        98        49        41        65        36        69        4        83        53        40        35        94        57        59        58        30        82        66        33        50        86        42        82        79        54        87        68        58        39        31        50         
 61        70        17        95        54        48        26        48        44        52        85        52        38        29        33        72        35        85        13        31        53        10000000        55        89        81        63        82        54        74        64        95        89        66        30        65        76        50        91        21        25        47        88        70        50        98        37        38        34        22        3        68        12        74        54        12        70        28        80        38        44        61         
 22        28        38        48        2        15        33        10        57        9        67        16        72        83        27        74        34        75        46        71        6        55        10000000        88        58        73        48        69        36        13        94        43        36        65        31        64        6        78        53        40        41        90        52        56        52        36        83        66        37        53        84        45        78        77        58        84        69        52        44        37        45         
 68        68        86        77        86        98        75        92        45        80        29        101        59        94        73        17        63        16        94        67        92        89        88        10000000        38        27        53        36        60        81        6        73        55        63        60        25        88        19        69        68        118        5        38        40        75        107        73        59        94        87        29        92        16        42        101        26        68        45        115        113        43         
 36        33        71        39        57        71        59        65        45        51        10        73        67        97        54        34        47        22        81        72        63        81        58        38        10000000        42        15        47        24        48        43        35        22        66        27        15        60        22        64        56        95        42        11        37        37        86        83        63        77        78        52        79        38        57        91        51        72        7        95        90        20         
 57        61        62        78        71        80        53        75        20        65        38        84        32        67        53        12        43        30        70        40        76        63        73        27        42        10000000        55        9        56        71        33        73        48        36        52        28        72        36        42        45        97        25        35        18        78        86        47        31        71        61        11        67        11        17        75        11        41        47        92        92        33         
 27        21        70        24        48        63        58        57        52        43        25        64        74        102        51        47        47        37        80        79        54        82        48        53        15        55        10000000        57        12        37        58        20        16        72        19        29        52        37        68        57        88        57        20        45        23        80        90        70        74        79        65        78        52        68        91        64        78        8        89        84        25         
 55        60        54        80        67        74        46        70        13        61        44        78        23        58        47        20        37        38        61        31        72        54        69        36        47        9        57        10000000        57        68        42        74        48        26        51        34        67        44        34        37        90        34        37        14        80        78        39        22        63        52        15        59        20        11        66        17        32        51        84        85        34         
 15        9        60        24        35        51        48        45        49        31        34        52        71        95        41        51        39        45        70        74        42        74        36        60        24        56        12        57        10000000        25        65        18        9        67        9        35        40        46        61        49        76        63        23        43        25        69        86        65        63        70        67        68        56        67        81        67        73        17        78        72        23         
 14        16        48        35        13        28        40        23        57        13        57        28        75        91        33        69        37        67        57        76        19        64        13        81        48        71        37        68        25        10000000        87        30        27        69        22        56        18        69        59        45        54        84        44        54        39        48        87        69        48        62        81        55        74        77        69        82        73        42        57        50        39         
 73        74        92        81        92        104        82        99        51        86        33        107        64        99        80        24        70        21        101        72        98        95        94        6        43        33        58        42        65        87        10000000        78        61        68        66        31        95        22        75        74        125        8        43        46        79        114        78        64        100        93        33        98        22        47        107        30        74        50        121        120        49         
 28        19        74        6        43        58        64        53        67        41        45        58        89        112        56        67        56        57        84        92        49        89        43        73        35        73        20        74        18        30        78        10000000        27        85        25        49        48        56        78        66        84        77        39        61        9        78        104        83        76        86        84        82        72        85        95        83        91        28        87        80        41         
 13        13        53        33        34        49        42        43        41        29        31        51        62        87        35        44        31        41        64        66        41        66        36        55        22        48        16        48        9        27        61        27        10000000        59        5        30        38        43        53        42        74        58        17        35        34        65        77        57        58        63        59        62        49        59        75        59        64        17        74        69        15         
 60        67        37        91        63        65        34        62        21        58        66        69        8        33        38        46        32        62        40        7        65        30        65        63        66        36        72        26        67        69        68        85        59        10000000        60        56        62        69        13        25        74        60        55        29        93        62        19        4        45        29        38        39        47        24        42        41        6        67        66        69        47         
 9        9        51        32        30        44        40        38        43        24        36        46        64        87        33        49        31        46        61        67        36        65        31        60        27        52        19        51        9        22        66        25        5        60        10000000        35        34        48        53        41        70        63        22        38        34        61        78        58        55        62        63        59        54        62        73        63        65        21        70        65        19         
 43        43        69        53        62        75        57        69        35        56        10        78        56        89        53        19        45        11        78        62        69        76        64        25        15        28        29        34        35        56        31        49        30        56        35        10000000        65        15        57        52        98        28        13        27        52        87        72        52        76        73        38        76        23        44        87        36        62        21        95        93        19         
 25        32        33        53        5        11        28        5        55        9        69        13        68        78        23        74        31        76        40        67        4        50        6        88        60        72        52        67        40        18        95        48        38        62        34        65        10000000        79        49        36        37        90        53        54        57        30        78        62        31        47        82        40        78        75        52        83        65        55        39        32        46         
 56        54        84        59        76        90        72        84        48        70        12        92        67        101        68        25        60        6        93        74        83        91        78        19        22        36        37        44        46        69        22        56        43        69        48        15        79        10000000        71        67        113        24        26        41        57        102        83        65        91        88        43        91        27        53        102        40        75        29        110        108        34         
 51        59        24        84        52        52        21        49        24        47        66        56        21        35        27        51        23        65        28        18        53        21        53        69        64        42        68        34        61        59        75        78        53        13        53        57        49        71        10000000        13        60        67        53        30        86        49        29        16        32        18        48        26        53        35        32        50        15        64        53        56        44         
 38        47        18        72        38        40        9        37        25        34        60        44        32        47        13        51        10        62        27        31        40        25        40        68        56        45        57        37        49        45        74        66        42        25        41        52        36        67        13        10000000        53        68        45        28        74        41        42        26        26        22        52        24        54        42        35        54        28        55        47        48        36         
 61        68        37        89        41        26        44        32        78        46        103        26        81        74        45        102        55        109        35        77        35        47        41        118        95        97        88        90        76        54        125        84        74        74        70        98        37        113        60        53        10000000        119        87        80        93        12        85        76        28        47        105        36        105        94        41        107        73        91        10        5        79         
 70        71        86        81        88        99        75        94        44        81        33        102        56        91        74        17        64        20        94        64        94        88        90        5        42        25        57        34        63        84        8        77        58        60        63        28        90        24        67        68        119        10000000        41        39        79        108        70        56        94        85        25        91        14        39        99        22        66        49        115        114        45         
 30        30        61        44        50        63        49        58        34        44        16        66        56        86        44        28        36        24        70        61        57        70        52        38        11        35        20        37        23        44        43        39        17        55        22        13        53        26        53        45        87        41        10000000        26        43        77        72        52        67        67        45        68        33        48        80        44        61        13        85        82        9         
 41        47        46        67        54        62        36        57        8        47        37        66        29        61        35        22        25        35        55        35        59        50        56        40        37        18        45        14        43        54        46        61        35        29        38        27        54        41        30        28        80        39        26        10000000        68        69        45        25        54        48        28        52        25        24        61        29        35        40        75        75        21         
 37        28        83        4        52        67        72        62        74        50        46        67        96        121        65        71        64        59        93        100        58        98        52        75        37        78        23        80        25        39        79        9        34        93        34        52        57        57        86        74        93        79        43        68        10000000        87        111        91        85        95        89        91        75        91        105        88        98        31        96        89        47         
 53        61        25        84        35        21        33        25        66        38        93        23        70        65        34        91        44        98        24        65        30        37        36        107        86        86        80        78        69        48        114        78        65        62        61        87        30        102        49        41        12        108        77        69        87        10000000        74        64        17        36        94        25        94        82        33        95        62        82        9        7        68         
 78        86        50        110        81        81        50        78        38        76        82        84        16        23        56        58        51        76        50        12        82        38        83        73        83        47        90        39        86        87        78        104        77        19        78        72        78        83        29        42        85        70        72        45        111        74        10000000        21        57        38        45        49        58        31        47        48        14        85        76        81        65         
 59        66        39        89        64        66        35        63        18        58        63        70        6        36        39        42        32        59        44        10        66        34        66        59        63        31        70        22        65        69        64        83        57        4        58        52        62        65        16        26        76        56        52        25        91        64        21        10000000        48        33        34        42        42        20        46        37        10        65        69        72        45         
 49        57        9        82        36        27        19        28        51        36        83        31        53        50        23        77        31        86        9        49        33        22        37        94        77        71        74        63        63        48        100        76        58        45        55        76        31        91        32        26        28        94        67        54        85        17        57        48        10000000        20        78        9        80        66        21        80        45        74        21        24        58         
 58        67        15        92        51        46        22        46        42        49        82        50        36        31        30        69        32        82        12        30        50        3        53        87        78        61        79        52        70        62        93        86        63        29        62        73        47        88        18        22        47        85        67        48        95        36        38        33        20        10000000        66        11        71        52        14        68        27        77        38        43        58         
 68        72        69        89        82        90        61        85        28        75        47        93        33        67        62        19        52        37        76        41        86        68        84        29        52        11        65        15        67        81        33        84        59        38        63        38        82        43        48        52        105        25        45        28        89        94        45        34        78        66        10000000        74        16        15        79        3        43        58        99        100        44         
 54        63        8        88        44        37        20        37        48        43        84        40        46        41        26        75        32        86        2        41        42        12        45        92        79        67        78        59        68        55        98        82        62        39        59        76        40        91        26        24        36        91        68        52        91        25        49        42        9        11        74        10000000        77        61        13        76        38        77        27        32        59         
 60        62        72        76        76        87        62        81        30        70        32        90        43        78        60        5        50        21        79        51        82        74        78        16        38        11        52        20        56        74        22        72        49        47        54        23        78        27        53        54        105        14        33        25        75        94        58        42        80        71        16        77        10000000        27        85        13        52        44        101        100        35         
 65        71        58        91        75        81        51        77        20        69        54        85        18        52        53        28        44        47        63        26        79        54        77        42        57        17        68        11        67        77        47        85        59        24        62        44        75        53        35        42        94        39        48        24        91        82        31        20        66        52        15        61        27        10000000        66        17        28        61        87        90        44         
 67        76        22        102        57        48        33        49        56        56        95        52        49        33        40        83        44        96        12        42        54        12        58        101        91        75        91        66        81        69        107        95        75        42        73        87        52        102        32        35        41        99        80        61        105        33        47        46        21        14        79        13        85        66        10000000        82        39        89        31        39        71         
 68        72        71        88        83        91        63        86        29        76        45        94        35        70        63        17        53        35        78        44        87        70        84        26        51        11        64        17        67        82        30        83        59        41        63        36        83        40        50        54        107        22        44        29        88        95        48        37        80        68        3        76        13        17        82        10000000        46        57        101        102        44         
 65        73        37        97        67        67        36        65        28        62        72        71        10        26        42        52        37        69        39        3        68        28        69        68        72        41        78        32        73        73        74        91        64        6        65        62        65        75        15        28        73        66        61        35        98        62        14        10        45        27        43        38        52        28        39        46        10000000        74        65        69        54         
 30        26        69        32        51        66        57        60        47        46        17        68        69        98        51        40        45        29        79        74        58        80        52        45        7        47        8        51        17        42        50        28        17        67        21        21        55        29        64        55        91        49        13        40        31        82        85        65        74        77        58        77        44        61        89        57        74        10000000        91        86        20         
 62        70        30        93        44        30        39        34        72        47        101        31        73        64        42        98        51        106        26        68        39        38        44        115        95        92        89        84        78        57        121        87        74        66        70        95        39        110        53        47        10        115        85        75        96        9        76        69        21        38        99        27        101        87        31        101        65        91        10000000        10        77         
 57        64        32        85        37        22        39        27        73        41        98        22        77        71        40        97        50        104        31        73        31        44        37        113        90        92        84        85        72        50        120        80        69        69        65        93        32        108        56        48        5        114        82        75        89        7        81        72        24        43        100        32        100        90        39        102        69        86        10        10000000        74         
 25        28        52        47        44        56        40        50        28        37        25        59        50        78        35        30        27        30        61        54        50        61        45        43        20        33        25        34        23        39        49        41        15        47        19        19        46        34        44        36        79        45        9        21        47        68        65        45        58        58        44        59        35        44        71        44        54        20        77        74        10000000         
 DEMAND_SECTION: 
 0   328   0 
 1   5   1 
 2   1   0 
 3   2   1 
 4   1   3 
 5   7   0 
 6   8   1 
 7   5   2 
 8   6   9 
 9   3   8 
 10   8   0 
 11   15   3 
 12   9   6 
 13   6   7 
 14   4   12 
 15   3   0 
 16   14   3 
 17   7   4 
 18   8   11 
 19   2   6 
 20   3   0 
 21   8   1 
 22   6   3 
 23   5   6 
 24   3   10 
 25   10   0 
 26   4   1 
 27   6   4 
 28   3   3 
 29   4   12 
 30   12   0 
 31   12   3 
 32   2   0 
 33   7   9 
 34   2   4 
 35   17   0 
 36   3   0 
 37   6   4 
 38   6   9 
 39   4   15 
 40   10   0 
 41   4   1 
 42   5   2 
 43   2   1 
 44   1   2 
 45   5   0 
 46   3   0 
 47   3   2 
 48   2   1 
 49   4   15 
 50   1   0 
 51   2   0 
 52   9   5 
 53   2   3 
 54   2   6 
 55   14   0 
 56   4   1 
 57   3   2 
 58   8   10 
 59   2   6 
 60   5   0 
 61   0   218 
