NAME: ..//instances//e_vigo//TSP_PD_vrp200_60_3_0.00.tspBeta0.000000 
COMMENT: TSPSimoultaneousPickUpandDelivery_2008 
TYPE: TSPDC 
DIMENSION: 62 
CAPACITY: 328 
EDGE_WEIGHT_TYPE: EXPLICIT 
EDGE_WEIGHT_FORMAT: FULL_MATRIX 
EDGE_WEIGHT_SECTION: 
10000000        85        59        93        11        74        89        87        56        57        16        43        17        7        64        45        99        4        96        86        23        63        20        85        55        78        64        18        69        100        68        83        89        94        58        19        56        93        77        29        86        33        79        96        80        21        77        83        44        48        49        55        86        9        64        21        43        55        110        83        92         
 85        10000000        26        63        82        98        77        53        29        93        74        85        81        79        107        59        19        86        94        90        69        101        85        66        30        48        72        80        128        85        62        22        63        79        101        88        43        33        34        58        101        58        16        47        50        65        53        100        54        61        66        33        50        77        42        94        75        114        95        20        86         
 59        26        10000000        61        56        81        69        51        3        72        48        63        55        52        87        37        41        60        85        79        43        81        60        60        4        43        56        54        105        79        49        30        59        73        80        62        25        42        32        32        87        34        24        52        45        38        46        85        31        41        46        13        49        50        29        68        53        91        90        28        77         
 93        63        61        10000000        84        54        19        10        62        60        93        63        79        86        72        49        55        92        36        36        70        65        80        11        64        18        35        78        97        23        26        40        5        18        69        83        41        32        30        68        50        87        47        19        16        75        17        50        50        46        46        74        13        89        33        88        55        87        32        42        28         
 11        82        56        84        10000000        63        79        78        53        46        22        32        6        7        54        36        94        8        85        76        15        52        10        76        53        70        54        7        62        90        59        78        80        84        48        10        49        86        70        24        75        36        75        88        72        17        68        72        36        39        39        54        78        13        57        14        33        47        100        77        82         
 74        98        81        54        63        10000000        36        56        81        18        82        31        57        69        21        45        98        71        29        21        57        16        54        43        81        54        26        56        45        41        36        80        49        40        21        56        57        79        66        64        13        88        83        70        54        66        49        9        51        41        36        90        58        74        56        57        34        39        47        81        31         
 89        77        69        19        79        36        10000000        25        70        46        91        52        73        82        56        46        72        87        17        17        67        49        73        11        72        29        25        72        80        11        22        55        16        5        53        75        46        50        43        67        30        90        61        38        27        73        24        31        50        42        40        82        28        86        40        79        47        73        22        57        9         
 87        53        51        10        78        56        25        10000000        53        60        85        60        74        80        73        43        47        86        43        41        64        66        75        14        54        9        34        73        97        32        23        31        10        26        68        78        33        25        20        60        54        79        37        14        7        67        10        54        43        40        41        64        3        82        24        83        51        87        41        33        34         
 56        29        3        62        53        81        70        53        10000000        71        45        61        53        50        85        36        44        57        85        79        40        80        57        61        1        44        56        52        104        81        50        33        61        74        79        60        25        45        34        29        87        31        26        54        47        36        47        85        30        40        45        12        50        47        30        65        52        89        91        31        78         
 57        93        72        60        46        18        46        60        71        10000000        66        14        40        52        14        35        97        53        45        35        42        8        37        50        72        55        26        39        37        54        37        78        55        51        9        38        50        80        65        50        31        74        79        74        56        51        51        27        41        32        27        80        61        58        52        40        20        27        62        79        45         
 16        74        48        93        22        82        91        85        45        66        10000000        52        27        15        76        45        89        19        101        92        26        73        32        86        45        76        68        27        83        103        70        76        89        97        69        32        53        87        72        25        94        18        71        92        78        18        76        90        43        50        52        42        84        9        61        36        49        69        113        75        96         
 43        85        63        63        32        31        52        60        61        14        52        10000000        26        38        25        26        92        40        55        45        28        21        23        53        62        54        28        26        43        62        37        73        58        57        18        25        43        77        61        37        43        60        73        73        55        37        51        40        32        25        21        68        61        44        47        28        11        29        71        73        53         
 17        81        55        79        6        57        73        74        53        40        27        26        10000000        13        48        31        92        14        79        70        13        46        5        71        52        65        48        1        57        84        53        75        74        78        42        7        46        83        67        23        69        39        73        84        67        18        64        66        32        34        34        55        73        18        53        13        27        43        93        75        76         
 7        79        52        86        7        69        82        80        50        52        15        38        13        10000000        61        38        92        8        90        81        16        59        17        79        49        71        58        13        68        93        62        77        82        88        54        17        49        86        70        22        81        30        73        89        73        14        70        78        37        41        43        50        79        6        57        21        37        54        104        76        86         
 64        107        87        72        54        21        56        73        85        14        76        25        48        61        10000000        49        111        60        50        42        53        7        44        61        86        69        39        48        25        62        51        92        67        60        7        45        65        94        79        62        33        85        94        87        69        62        64        29        55        47        42        93        74        67        67        44        34        19        68        93        52         
 45        59        37        49        36        45        46        43        36        35        45        26        31        38        49        10000000        66        43        57        48        22        43        33        41        37        34        24        30        69        57        24        48        44        51        42        36        17        53        37        21        53        45        47        53        36        27        33        51        6        4        9        45        42        40        23        41        16        55        68        48        51         
 99        19        41        55        94        98        72        47        44        97        89        92        92        92        111        66        10000000        100        89        87        80        104        96        61        45        45        73        91        134        78        62        19        57        73        105        99        49        22        32        70        99        75        20        36        46        78        50        99        62        67        71        50        44        91        45        105        81        121        86        18        81         
 4        86        60        92        8        71        87        86        57        53        19        40        14        8        60        43        100        10000000        93        84        22        59        17        84        57        77        62        15        65        98        67        84        88        92        54        15        56        93        77        30        83        36        80        95        79        22        76        80        43        46        47        57        85        11        64        17        41        51        108        83        90         
 96        94        85        36        85        29        17        43        85        45        101        55        79        90        50        57        89        93        10000000        9        75        45        77        29        87        46        33        78        73        15        35        73        33        17        50        80        60        67        60        78        18        102        78        55        44        83        41        21        61        52        49        97        46        94        56        82        52        68        18        75        8         
 86        90        79        36        76        21        17        41        79        35        92        45        70        81        42        48        87        84        9        10000000        66        36        68        27        80        43        25        69        66        20        29        70        32        20        41        70        54        66        57        69        13        93        74        55        41        74        37        15        53        44        40        90        44        85        50        73        43        60        26        71        10         
 23        69        43        70        15        57        67        64        40        42        26        28        13        16        53        22        80        22        75        66        10000000        49        17        63        40        55        42        12        66        78        46        63        66        72        46        19        34        71        55        11        68        32        60        73        57        9        54        65        21        25        27        44        63        19        42        25        24        51        88        63        71         
 63        101        81        65        52        16        49        66        80        8        73        21        46        59        7        43        104        59        45        36        49        10000000        42        54        80        62        32        46        32        56        43        85        60        54        6        44        58        86        72        58        28        81        87        80        62        58        57        25        49        40        35        88        67        65        60        44        28        24        62        86        46         
 20        85        60        80        10        54        73        75        57        37        32        23        5        17        44        33        96        17        77        68        17        42        10000000        71        57        67        48        6        52        83        54        79        75        78        38        3        49        86        70        28        67        45        76        86        69        23        65        63        35        35        35        61        75        23        56        9        26        37        93        79        75         
 85        66        60        11        76        43        11        14        61        50        86        53        71        79        61        41        61        84        29        27        63        54        71        10000000        62        18        25        70        86        20        17        44        6        13        58        74        37        39        32        61        40        83        50        28        16        68        14        40        44        38        37        72        17        81        30        78        46        77        30        46        20         
 55        30        4        64        53        81        72        54        1        72        45        62        52        49        86        37        45        57        87        80        40        80        57        62        10000000        45        57        52        104        82        51        34        62        75        79        60        26        47        35        29        88        30        28        56        48        36        49        86        31        41        46        10        52        47        32        65        52        89        93        33        79         
 78        48        43        18        70        54        29        9        44        55        76        54        65        71        69        34        45        77        46        43        55        62        67        18        45        10000000        30        64        93        38        18        27        17        31        64        70        23        25        14        51        55        69        32        19        3        58        5        54        34        32        34        56        8        72        15        75        44        81        48        29        38         
 64        72        56        35        54        26        25        34        56        26        68        28        48        58        39        24        73        62        33        25        42        32        48        25        57        30        10000000        47        63        36        11        54        30        30        34        50        31        54        41        45        31        69        57        48        30        50        25        29        29        19        16        66        35        62        30        54        22        53        46        55        28         
 18        80        54        78        7        56        72        73        52        39        27        26        1        13        48        30        91        15        78        69        12        46        6        70        52        64        47        10000000        57        83        52        74        73        77        41        8        45        82        66        23        68        39        72        83        66        17        63        65        31        33        33        55        72        19        52        14        26        43        93        74        75         
 69        128        105        97        62        45        80        97        104        37        83        43        57        68        25        69        134        65        73        66        66        32        52        86        104        93        63        57        10000000        86        75        115        92        85        29        51        86        117        102        77        55        97        115        111        93        74        89        52        74        67        63        110        99        74        89        48        53        15        91        115        76         
 100        85        79        23        90        41        11        32        81        54        103        62        84        93        62        57        78        98        15        20        78        56        83        20        82        38        36        83        86        10000000        33        63        22        7        61        86        56        56        51        78        33        101        69        42        36        84        34        35        61        53        51        92        35        97        50        89        57        80        11        65        10         
 68        62        49        26        59        36        22        23        50        37        70        37        53        62        51        24        62        67        35        29        46        43        54        17        51        18        11        52        75        33        10000000        43        21        27        46        57        25        43        30        45        39        68        47        37        19        51        14        38        28        21        20        61        24        65        21        62        29        64        44        45        29         
 83        22        30        40        78        80        55        31        33        78        76        73        75        77        92        48        19        84        73        70        63        85        79        44        34        27        54        74        115        63        43        10000000        41        57        86        82        30        13        13        54        81        64        8        25        28        62        32        81        44        48        52        43        28        76        25        87        62        102        72        2        65         
 89        63        59        5        80        49        16        10        61        55        89        58        74        82        67        44        57        88        33        32        66        60        75        6        62        17        30        73        92        22        21        41        10000000        16        64        78        38        34        30        64        45        84        47        22        14        71        13        46        46        41        41        72        13        85        31        83        50        82        32        43        25         
 94        79        73        18        84        40        5        26        74        51        97        57        78        88        60        51        73        92        17        20        72        54        78        13        75        31        30        77        85        7        27        57        16        10000000        58        81        50        50        45        72        33        94        63        38        29        78        27        34        54        47        45        85        29        91        43        84        52        77        17        59        10         
 58        101        80        69        48        21        53        68        79        9        69        18        42        54        7        42        105        54        50        41        46        6        38        58        79        64        34        41        29        61        46        86        64        58        10000000        39        58        88        74        55        34        78        87        82        65        55        60        30        48        40        35        86        70        60        61        39        27        19        68        87        51         
 19        88        62        83        10        56        75        78        60        38        32        25        7        17        45        36        99        15        80        70        19        44        3        74        60        70        50        8        51        86        57        82        78        81        39        10000000        52        89        73        30        69        46        79        89        72        25        68        65        38        38        37        62        78        23        59        6        29        37        95        81        77         
 56        43        25        41        49        57        46        33        25        50        53        43        46        49        65        17        49        56        60        54        34        58        49        37        26        23        31        45        86        56        25        30        38        50        58        52        10000000        37        21        28        62        46        30        40        26        36        25        60        14        18        23        36        31        50        9        57        33        72        67        31        53         
 93        33        42        32        86        79        50        25        45        80        87        77        83        86        94        53        22        93        67        66        71        86        86        39        47        25        54        82        117        56        43        13        34        50        88        89        37        10000000        16        64        78        76        21        14        25        72        30        78        51        53        56        55        22        86        30        95        67        105        64        15        59         
 77        34        32        30        70        66        43        20        34        65        72        61        67        70        79        37        32        77        60        57        55        72        70        32        35        14        41        66        102        51        30        13        30        45        74        73        21        16        10000000        48        68        63        18        21        16        56        19        67        35        37        40        45        17        70        14        78        51        90        61        15        52         
 29        58        32        68        24        64        67        60        29        50        25        37        23        22        62        21        70        30        78        69        11        58        28        61        29        51        45        23        77        78        45        54        64        72        55        30        28        64        48        10000000        73        24        51        68        53        8        51        71        18        26        30        33        59        22        36        36        30        62        89        54        73         
 86        101        87        50        75        13        30        54        87        31        94        43        69        81        33        53        99        83        18        13        68        28        67        40        88        55        31        68        55        33        39        81        45        33        34        69        62        78        68        73        10000000        98        85        68        54        76        49        4        59        49        44        97        57        86        60        70        44        51        36        83        23         
 33        58        34        87        36        88        90        79        31        74        18        60        39        30        85        45        75        36        102        93        32        81        45        83        30        69        69        39        97        101        68        64        84        94        78        46        46        76        63        24        98        10000000        58        83        72        23        71        95        40        50        54        25        77        24        54        50        54        82        112        63        96         
 79        16        24        47        75        83        61        37        26        79        71        73        73        73        94        47        20        80        78        74        60        87        76        50        28        32        57        72        115        69        47        8        47        63        87        79        30        21        18        51        85        58        10000000        33        34        58        37        84        42        48        52        35        35        72        27        85        62        102        79        6        70         
 96        47        52        19        88        70        38        14        54        74        92        73        84        89        87        53        36        95        55        55        73        80        86        28        56        19        48        83        111        42        37        25        22        38        82        89        40        14        21        68        68        83        33        10000000        18        76        23        68        52        51        53        65        13        90        31        94        64        100        50        27        47         
 80        50        45        16        72        54        27        7        47        56        78        55        67        73        69        36        46        79        44        41        57        62        69        16        48        3        30        66        93        36        19        28        14        29        65        72        26        25        16        53        54        72        34        18        10000000        61        5        53        36        34        35        59        6        75        18        77        46        82        46        30        36         
 21        65        38        75        17        66        73        67        36        51        18        37        18        14        62        27        78        22        83        74        9        58        23        68        36        58        50        17        74        84        51        62        71        78        55        25        36        72        56        8        76        23        58        76        61        10000000        58        73        25        31        34        38        66        14        44        30        32        59        95        62        78         
 77        53        46        17        68        49        24        10        47        51        76        51        64        70        64        33        50        76        41        37        54        57        65        14        49        5        25        63        89        34        14        32        13        27        60        68        25        30        19        51        49        71        37        23        5        58        10000000        49        34        30        31        59        10        72        17        73        41        77        44        34        33         
 83        100        85        50        72        9        31        54        85        27        90        40        66        78        29        51        99        80        21        15        65        25        63        40        86        54        29        65        52        35        38        81        46        34        30        65        60        78        67        71        4        95        84        68        53        73        49        10000000        57        47        42        95        57        83        58        67        41        48        39        82        25         
 44        54        31        50        36        51        50        43        30        41        43        32        32        37        55        6        62        43        61        53        21        49        35        44        31        34        29        31        74        61        28        44        46        54        48        38        14        51        35        18        59        40        42        52        36        25        34        57        10000000        10        15        39        42        39        21        44        21        60        72        44        55         
 48        61        41        46        39        41        42        40        40        32        50        25        34        41        47        4        67        46        52        44        25        40        35        38        41        32        19        33        67        53        21        48        41        47        40        38        18        53        37        26        49        50        48        51        34        31        30        47        10        10000000        5        49        40        44        23        43        14        54        64        48        47         
 49        66        46        46        39        36        40        41        45        27        52        21        34        43        42        9        71        47        49        40        27        35        35        37        46        34        16        33        63        51        20        52        41        45        35        37        23        56        40        30        44        54        52        53        35        34        31        42        15        5        10000000        54        41        46        26        42        11        50        61        52        44         
 55        33        13        74        54        90        82        64        12        80        42        68        55        50        93        45        50        57        97        90        44        88        61        72        10        56        66        55        110        92        61        43        72        85        86        62        36        55        45        33        97        25        35        65        59        38        59        95        39        49        54        10000000        62        46        42        68        59        95        103        41        89         
 86        50        49        13        78        58        28        3        50        61        84        61        73        79        74        42        44        85        46        44        63        67        75        17        52        8        35        72        99        35        24        28        13        29        70        78        31        22        17        59        57        77        35        13        6        66        10        57        42        40        41        62        10000000        81        23        83        52        88        44        30        37         
 9        77        50        89        13        74        86        82        47        58        9        44        18        6        67        40        91        11        94        85        19        65        23        81        47        72        62        19        74        97        65        76        85        91        60        23        50        86        70        22        86        24        72        90        75        14        72        83        39        44        46        46        81        10000000        58        27        42        60        107        75        90         
 64        42        29        33        57        56        40        24        30        52        61        47        53        57        67        23        45        64        56        50        42        60        56        30        32        15        30        52        89        50        21        25        31        43        61        59        9        30        14        36        60        54        27        31        18        44        17        58        21        23        26        42        23        58        10000000        64        37        76        61        26        48         
 21        94        68        88        14        57        79        83        65        40        36        28        13        21        44        41        105        17        82        73        25        44        9        78        65        75        54        14        48        89        62        87        83        84        39        6        57        95        78        36        70        50        85        94        77        30        73        67        44        43        42        68        83        27        64        10000000        33        34        98        87        81         
 43        75        53        55        33        34        47        51        52        20        49        11        27        37        34        16        81        41        52        43        24        28        26        46        52        44        22        26        53        57        29        62        50        52        27        29        33        67        51        30        44        54        62        64        46        32        41        41        21        14        11        59        52        42        37        33        10000000        40        67        63        49         
 55        114        91        87        47        39        73        87        89        27        69        29        43        54        19        55        121        51        68        60        51        24        37        77        89        81        53        43        15        80        64        102        82        77        19        37        72        105        90        62        51        82        102        100        82        59        77        48        60        54        50        95        88        60        76        34        40        10000000        86        102        70         
 110        95        90        32        100        47        22        41        91        62        113        71        93        104        68        68        86        108        18        26        88        62        93        30        93        48        46        93        91        11        44        72        32        17        68        95        67        64        61        89        36        112        79        50        46        95        44        39        72        64        61        103        44        107        61        98        67        86        10000000        74        18         
 83        20        28        42        77        81        57        33        31        79        75        73        75        76        93        48        18        83        75        71        63        86        79        46        33        29        55        74        115        65        45        2        43        59        87        81        31        15        15        54        83        63        6        27        30        62        34        82        44        48        52        41        30        75        26        87        63        102        74        10000000        66         
 92        86        77        28        82        31        9        34        78        45        96        53        76        86        52        51        81        90        8        10        71        46        75        20        79        38        28        75        76        10        29        65        25        10        51        77        53        59        52        73        23        96        70        47        36        78        33        25        55        47        44        89        37        90        48        81        49        70        18        66        10000000         
 DEMAND_SECTION: 
 0   328   0 
 1   1   0 
 2   4   2 
 3   8   11 
 4   3   11 
 5   19   0 
 6   8   1 
 7   8   5 
 8   3   4 
 9   1   0 
 10   1   0 
 11   5   1 
 12   5   2 
 13   4   5 
 14   3   11 
 15   1   0 
 16   14   3 
 17   9   6 
 18   8   11 
 19   2   6 
 20   11   0 
 21   1   0 
 22   5   2 
 23   1   0 
 24   3   10 
 25   4   0 
 26   4   1 
 27   5   3 
 28   2   2 
 29   1   0 
 30   18   0 
 31   3   0 
 32   4   2 
 33   4   6 
 34   4   12 
 35   11   0 
 36   14   3 
 37   8   4 
 38   5   6 
 39   1   0 
 40   8   0 
 41   1   0 
 42   8   5 
 43   4   5 
 44   4   15 
 45   11   0 
 46   11   2 
 47   6   3 
 48   1   0 
 49   3   8 
 50   6   0 
 51   4   0 
 52   3   1 
 53   6   7 
 54   1   0 
 55   6   0 
 56   12   3 
 57   11   6 
 58   2   2 
 59   1   3 
 60   3   0 
 61   0   190 
