NAME: ..//instances//e_vigo//TSP_PD_vrp200_60_7_0.00.tspBeta0.000000 
COMMENT: TSPSimoultaneousPickUpandDelivery_2008 
TYPE: TSPDC 
DIMENSION: 62 
CAPACITY: 374 
EDGE_WEIGHT_TYPE: EXPLICIT 
EDGE_WEIGHT_FORMAT: FULL_MATRIX 
EDGE_WEIGHT_SECTION: 
10000000        75        20        28        17        75        48        68        14        54        40        24        58        31        19        57        10        37        56        57        69        47        64        66        55        62        41        76        35        14        33        41        57        13        41        45        37        7        49        40        20        20        18        60        57        19        47        38        30        51        40        61        17        19        37        39        19        35        10        22        44         
 75        10000000        86        54        65        0        30        83        83        37        67        89        62        59        94        19        84        65        93        32        82        36        71        57        87        50        80        9        85        66        51        55        31        65        72        61        81        79        94        75        56        95        85        16        49        87        70        46        105        24        78        15        68        67        99        107        93        108        68        53        58         
 20        86        10000000        32        37        86        56        87        30        71        33        39        77        51        18        69        23        57        40        73        89        52        84        85        41        81        27        88        19        20        36        39        62        22        31        65        56        24        31        60        30        24        1        72        76        2        67        42        31        63        59        73        36        19        18        49        27        41        29        37        63         
 28        54        32        10000000        30        54        24        78        40        46        21        49        62        38        44        38        38        47        48        47        79        21        71        66        43        60        31        57        33        14        5        16        30        15        26        51        55        34        45        55        9        47        32        40        55        34        57        10        56        32        56        42        32        13        46        66        47        63        26        17        48         
 17        65        37        30        10000000        65        42        52        18        39        49        23        41        14        34        46        21        21        70        42        53        45        47        48        68        45        54        64        50        23        35        46        54        20        52        28        25        16        64        26        21        32        35        50        40        36        31        38        41        42        26        50        2        29        54        42        30        42        8        15        26         
 75        0        86        54        65        10000000        30        83        83        37        67        89        62        59        94        19        84        65        93        32        82        36        71        57        87        50        80        9        85        66        51        55        31        65        72        61        81        79        94        75        56        95        85        16        49        87        70        46        105        24        78        15        68        67        99        107        93        108        68        53        58         
 48        30        56        24        42        30        10000000        77        58        35        38        65        57        42        66        16        57        50        65        33        77        9        67        58        60        50        51        34        55        37        21        27        13        36        43        50        63        53        65        60        28        67        56        18        47        57        58        16        77        13        62        20        44        37        69        84        67        82        42        27        47         
 68        83        87        78        52        83        77        10000000        59        46        99        54        21        40        78        69        66        32        122        51        2        85        12        27        120        33        106        76        102        75        82        94        90        72        103        28        33        64        116        28        70        74        86        72        34        86        21        83        78        68        29        70        52        81        105        63        69        71        59        61        31         
 14        83        30        40        18        83        58        59        10000000        56        54        9        53        29        19        64        7        32        69        60        60        59        58        62        69        60        55        82        48        28        46        55        68        26        55        41        26        7        61        31        32        16        29        67        56        29        40        50        24        59        30        68        16        33        47        26        12        25        16        31        40         
 54        37        71        46        39        37        35        46        56        10000000        67        59        25        27        72        23        60        30        94        5        46        44        35        23        90        16        78        32        78        52        47        58        47        49        72        24        46        55        91        39        42        71        70        25        13        71        33        46        80        23        42        24        40        56        88        77        68        79        44        34        21         
 40        67        33        21        49        67        38        99        54        67        10000000        63        83        59        50        54        49        67        27        67        100        30        92        87        22        81        14        72        21        27        20        11        37        30        5        72        73        47        27        74        29        54        33        56        76        34        78        22        63        50        75        58        50        21        37        78        56        72        43        38        69         
 24        89        39        49        23        89        65        54        9        59        63        10000000        52        32        25        69        15        32        78        63        56        67        55        62        78        61        64        87        57        37        54        64        76        35        65        41        21        16        70        28        40        20        37        73        56        37        38        59        24        65        26        73        21        43        54        19        15        21        24        38        41         
 58        62        77        62        41        62        57        21        53        25        83        52        10000000        27        72        48        59        21        108        30        20        66        10        10        105        13        91        56        89        62        64        76        70        58        87        12        32        55        103        25        55        69        76        51        13        77        14        65        76        47        27        49        41        67        95        66        65        72        48        45        14         
 31        59        51        38        14        59        42        40        29        27        59        32        27        10000000        47        41        34        9        82        32        41        48        34        34        79        31        66        57        63        36        42        54        55        32        62        14        22        30        77        18        30        45        49        44        26        50        19        43        53        37        20        44        15        41        68        50        42        52        22        21        12         
 19        94        18        44        34        94        66        78        19        72        50        25        72        47        10000000        75        13        51        57        76        80        64        77        81        58        78        45        95        37        29        49        54        74        30        49        60        45        17        48        51        38        6        17        79        74        16        60        54        13        70        49        80        32        32        30        31        10        23        28        41        59         
 57        19        69        38        46        19        16        69        64        23        54        69        48        41        75        10000000        65        47        82        19        68        26        58        46        76        38        67        20        70        49        36        44        25        47        59        44        62        60        81        57        38        76        68        4        36        69        53        32        86        5        60        4        48        50        83        88        74        89        49        34        41         
 10        84        23        38        21        84        57        66        7        60        49        15        59        34        13        65        10000000        38        63        64        67        58        64        68        63        65        48        84        42        24        43        51        67        23        50        47        33        5        54        38        30        11        22        69        61        22        47        48        21        60        37        70        20        29        39        29        9        25        16        31        46         
 37        65        57        47        21        65        50        32        32        30        67        32        21        9        51        47        38        10000000        90        35        33        57        27        30        88        29        74        61        71        43        51        63        64        40        71        9        16        35        84        10        38        48        56        51        25        56        11        52        55        44        13        50        21        49        75        48        44        52        28        30        9         
 56        93        40        48        70        93        65        122        69        94        27        78        108        82        57        82        63        90        10000000        94        123        57        116        113        7        107        17        99        21        47        47        38        62        50        23        96        93        62        10        95        53        63        41        83        102        42        101        50        69        77        95        85        71        41        31        88        66        80        63        63        94         
 57        32        73        47        42        32        33        51        60        5        67        63        30        32        76        19        64        35        94        10000000        50        42        39        27        90        19        78        27        80        54        47        58        44        51        72        29        51        59        92        45        44        75        73        21        17        74        38        45        84        21        48        20        44        57        90        81        72        84        48        36        27         
 69        82        89        79        53        82        77        2        60        46        100        56        20        41        80        68        67        33        123        50        10000000        85        11        25        120        32        106        75        103        76        82        94        90        72        103        28        35        65        117        29        71        75        87        71        33        88        22        83        80        68        30        70        53        82        106        65        71        73        60        62        31         
 47        36        52        21        45        36        9        85        59        44        30        67        66        48        64        26        58        57        57        42        85        10000000        75        67        51        59        44        42        49        35        16        19        9        35        35        57        68        53        58        66        27        67        52        27        55        54        65        11        77        22        68        29        47        33        64        85        67        83        44        30        54         
 64        71        84        71        47        71        67        12        58        35        92        55        10        34        77        58        64        27        116        39        11        75        10000000        15        113        21        100        64        97        70        74        86        80        66        96        20        34        61        111        27        63        73        83        60        22        83        17        74        79        57        29        59        48        75        102        67        69        74        55        54        23         
 66        57        85        66        48        57        58        27        62        23        87        62        10        34        81        46        68        30        113        27        25        67        15        10000000        109        8        97        50        96        68        68        80        70        65        92        21        43        64        109        35        60        78        84        48        11        84        25        67        85        47        38        46        49        73        102        76        74        82        56        51        22         
 55        87        41        43        68        87        60        120        69        90        22        78        105        79        58        76        63        88        7        90        120        51        113        109        10000000        103        14        93        22        45        42        33        56        48        18        93        91        62        14        94        50        64        42        78        98        42        98        45        71        72        94        80        69        39        35        89        67        82        61        59        91         
 62        50        81        60        45        50        50        33        60        16        81        61        13        31        78        38        65        29        107        19        32        59        21        8        103        10000000        91        43        90        63        62        73        63        60        85        20        43        61        103        36        54        76        80        40        5        80        26        61        84        39        39        39        46        67        98        77        73        81        52        45        20         
 41        80        27        31        54        80        51        106        55        78        14        64        91        66        45        67        48        74        17        78        106        44        100        97        14        91        10000000        85        9        30        31        25        50        34        9        80        77        47        14        79        37        51        28        69        86        29        84        35        58        62        79        71        54        25        26        76        53        68        47        46        77         
 76        9        88        57        64        9        34        76        82        32        72        87        56        57        95        20        84        61        99        27        75        42        64        50        93        43        85        10000000        89        69        55        61        38        67        77        56        77        79        99        71        58        95        88        17        43        89        65        50        105        25        74        15        66        70        103        106        93        107        68        54        53         
 35        85        19        33        50        85        55        102        48        78        21        57        89        63        37        70        42        71        21        80        103        49        97        96        22        90        9        89        10000000        28        34        31        56        31        17        77        72        41        14        75        36        42        20        73        85        21        81        39        49        65        75        75        51        23        17        68        46        60        43        45        75         
 14        66        20        14        23        66        37        75        28        52        27        37        62        36        29        49        24        43        47        54        76        35        70        68        45        63        30        69        28        10000000        19        27        44        4        29        50        47        21        41        49        10        32        19        52        58        21        54        25        42        43        49        53        24        6        36        53        33        49        17        18        47         
 33        51        36        5        35        51        21        82        46        47        20        54        64        42        49        36        43        51        47        47        82        16        74        68        42        62        31        55        34        19        10000000        12        25        20        24        54        59        39        45        59        14        51        36        38        57        38        61        6        61        31        60        40        36        17        48        72        52        68        31        21        51         
 41        55        39        16        46        55        27        94        55        58        11        64        76        54        54        44        51        63        38        58        94        19        86        80        33        73        25        61        31        27        12        10000000        26        29        16        66        71        48        39        71        25        58        39        45        68        41        73        13        68        39        72        47        48        23        47        80        59        76        42        33        63         
 57        31        62        30        54        31        13        90        68        47        37        76        70        55        74        25        67        64        62        44        90        9        80        70        56        63        50        38        56        44        25        26        10000000        44        41        63        76        63        64        73        37        76        62        25        59        63        72        20        86        24        75        27        56        42        72        95        76        92        53        39        60         
 13        65        22        15        20        65        36        72        26        49        30        35        58        32        30        47        23        40        50        51        72        35        66        65        48        60        34        67        31        4        20        29        44        10000000        32        46        44        19        45        45        9        32        22        50        55        23        50        25        42        42        46        51        21        9        39        52        32        48        13        15        44         
 41        72        31        26        52        72        43        103        55        72        5        65        87        62        49        59        50        71        23        72        103        35        96        92        18        85        9        77        17        29        24        16        41        32        10000000        76        76        48        23        77        33        54        32        61        81        33        81        27        62        55        78        63        53        23        34        78        56        72        45        42        73         
 45        61        65        51        28        61        50        28        41        24        72        41        12        14        60        44        47        9        96        29        28        57        20        21        93        20        80        56        77        50        54        66        63        46        76        10000000        23        43        91        16        43        57        64        47        16        64        9        55        64        42        19        46        29        55        83        56        53        61        36        34        3         
 37        81        56        55        25        81        63        33        26        46        73        21        32        22        45        62        33        16        93        51        35        68        34        43        91        43        77        77        72        47        59        71        76        44        76        23        10000000        31        86        8        46        41        54        66        40        54        18        62        45        59        5        66        23        53        72        34        36        40        31        39        25         
 7        79        24        34        16        79        53        64        7        55        47        16        55        30        17        60        5        35        62        59        65        53        61        64        62        61        47        79        41        21        39        48        63        19        48        43        31        10000000        55        36        26        16        23        64        56        23        44        44        26        55        35        65        15        26        41        33        14        30        11        26        42         
 49        94        31        45        64        94        65        116        61        91        27        70        103        77        48        81        54        84        10        92        117        58        111        109        14        103        14        99        14        41        45        39        64        45        23        91        86        55        10000000        89        49        54        32        83        98        33        95        49        59        76        89        85        64        36        21        79        57        71        56        58        89         
 40        75        60        55        26        75        60        28        31        39        74        28        25        18        51        57        38        10        95        45        29        66        27        35        94        36        79        71        75        49        59        71        73        45        77        16        8        36        89        10000000        46        47        58        61        33        59        10        61        52        55        3        60        25        55        77        41        42        47        33        38        18         
 20        56        30        9        21        56        28        70        32        42        29        40        55        30        38        38        30        38        53        44        71        27        63        60        50        54        37        58        36        10        14        25        37        9        33        43        46        26        49        46        10000000        40        30        42        49        31        49        18        50        33        47        43        23        13        46        58        39        55        17        9        41         
 20        95        24        47        32        95        67        74        16        71        54        20        69        45        6        76        11        48        63        75        75        67        73        78        64        76        51        95        42        32        51        58        76        32        54        57        41        16        54        47        40        10000000        22        80        71        22        56        57        10        71        45        80        31        36        36        25        4        18        27        42        56         
 18        85        1        32        35        85        56        86        29        70        33        37        76        49        17        68        22        56        41        73        87        52        83        84        42        80        28        88        20        19        36        39        62        22        32        64        54        23        32        58        30        22        10000000        71        74        1        66        42        30        63        58        73        35        19        19        48        25        40        28        36        62         
 60        16        72        40        50        16        18        72        67        25        56        73        51        44        79        4        69        51        83        21        71        27        60        48        78        40        69        17        73        52        38        45        25        50        61        47        66        64        83        61        42        80        71        10000000        38        72        56        34        89        9        63        2        52        53        86        92        78        92        52        38        44         
 57        49        76        55        40        49        47        34        56        13        76        56        13        26        74        36        61        25        102        17        33        55        22        11        98        5        86        43        85        58        57        68        59        55        81        16        40        56        98        33        49        71        74        38        10000000        75        24        56        79        36        35        37        41        62        93        73        68        77        47        40        16         
 19        87        2        34        36        87        57        86        29        71        34        37        77        50        16        69        22        56        42        74        88        54        83        84        42        80        29        89        21        21        38        41        63        23        33        64        54        23        33        59        31        22        1        72        75        10000000        66        43        29        64        58        74        36        21        18        47        25        39        29        37        63         
 47        70        67        57        31        70        58        21        40        33        78        38        14        19        60        53        47        11        101        38        22        65        17        25        98        26        84        65        81        54        61        73        72        50        81        9        18        44        95        10        49        56        66        56        24        66        10000000        62        62        51        13        55        31        60        85        52        52        57        39        40        12         
 38        46        42        10        38        46        16        83        50        46        22        59        65        43        54        32        48        52        50        45        83        11        74        67        45        61        35        50        39        25        6        13        20        25        27        55        62        44        49        61        18        57        42        34        56        43        62        10000000        67        27        62        36        40        23        54        76        57        73        35        24        52         
 30        105        31        56        41        105        77        78        24        80        63        24        76        53        13        86        21        55        69        84        80        77        79        85        71        84        58        105        49        42        61        68        86        42        62        64        45        26        59        52        50        10        30        89        79        29        62        67        10000000        81        50        90        39        45        39        21        12        12        37        52        64         
 51        24        63        32        42        24        13        68        59        23        50        65        47        37        70        5        60        44        77        21        68        22        57        47        72        39        62        25        65        43        31        39        24        42        55        42        59        55        76        55        33        71        63        9        36        64        51        27        81        10000000        57        10        44        45        78        84        69        84        44        29        39         
 40        78        59        56        26        78        62        29        30        42        75        26        27        20        49        60        37        13        95        48        30        68        29        38        94        39        79        74        75        49        60        72        75        46        78        19        5        35        89        3        47        45        58        63        35        58        13        62        50        57        10000000        63        25        55        76        39        41        45        33        39        21         
 61        15        73        42        50        15        20        70        68        24        58        73        49        44        80        4        70        50        85        20        70        29        59        46        80        39        71        15        75        53        40        47        27        51        63        46        66        65        85        60        43        80        73        2        37        74        55        36        90        10        63        10000000        52        54        88        92        79        93        53        39        44         
 17        68        36        32        2        68        44        52        16        40        50        21        41        15        32        48        20        21        71        44        53        47        48        49        69        46        54        66        51        24        36        48        56        21        53        29        23        15        64        25        23        31        35        52        41        36        31        40        39        44        25        52        10000000        30        54        40        28        40        8        17        27         
 19        67        19        13        29        67        37        81        33        56        21        43        67        41        32        50        29        49        41        57        82        33        75        73        39        67        25        70        23        6        17        23        42        9        23        55        53        26        36        55        13        36        19        53        62        21        60        23        45        45        55        54        30        10000000        34        58        37        53        22        22        52         
 37        99        18        46        54        99        69        105        47        88        37        54        95        68        30        83        39        75        31        90        106        64        102        102        35        98        26        103        17        36        48        47        72        39        34        83        72        41        21        77        46        36        19        86        93        18        85        54        39        78        76        88        54        34        10000000        60        40        51        47        54        81         
 39        107        49        66        42        107        84        63        26        77        78        19        66        50        31        88        29        48        88        81        65        85        67        76        89        77        76        106        68        53        72        80        95        52        78        56        34        33        79        41        58        25        48        92        73        47        52        76        21        84        39        92        40        58        60        10000000        22        10        42        56        57         
 19        93        27        47        30        93        67        69        12        68        56        15        65        42        10        74        9        44        66        72        71        67        69        74        67        73        53        93        46        33        52        59        76        32        56        53        36        14        57        42        39        4        25        78        68        25        52        57        12        69        41        79        28        37        40        22        10000000        16        25        40        53         
 35        108        41        63        42        108        82        71        25        79        72        21        72        52        23        89        25        52        80        84        73        83        74        82        82        81        68        107        60        49        68        76        92        48        72        61        40        30        71        47        55        18        40        92        77        39        57        73        12        84        45        93        40        53        51        10        16        10000000        40        55        61         
 10        68        29        26        8        68        42        59        16        44        43        24        48        22        28        49        16        28        63        48        60        44        55        56        61        52        47        68        43        17        31        42        53        13        45        36        31        11        56        33        17        27        28        52        47        29        39        35        37        44        33        53        8        22        47        42        25        40        10000000        15        34         
 22        53        37        17        15        53        27        61        31        34        38        38        45        21        41        34        31        30        63        36        62        30        54        51        59        45        46        54        45        18        21        33        39        15        42        34        39        26        58        38        9        42        36        38        40        37        40        24        52        29        39        39        17        22        54        56        40        55        15        10000000        31         
 44        58        63        48        26        58        47        31        40        21        69        41        14        12        59        41        46        9        94        27        31        54        23        22        91        20        77        53        75        47        51        63        60        44        73        3        25        42        89        18        41        56        62        44        16        63        12        52        64        39        21        44        27        52        81        57        53        61        34        31        10000000         
 DEMAND_SECTION: 
 0   374   0 
 1   13   3 
 2   6   4 
 3   2   1 
 4   3   11 
 5   7   0 
 6   8   1 
 7   11   6 
 8   6   9 
 9   1   0 
 10   8   0 
 11   15   3 
 12   9   6 
 13   6   7 
 14   2   4 
 15   13   0 
 16   14   3 
 17   7   4 
 18   8   11 
 19   2   6 
 20   3   0 
 21   8   1 
 22   12   7 
 23   1   0 
 24   3   10 
 25   1   0 
 26   4   1 
 27   1   0 
 28   7   9 
 29   4   12 
 30   2   0 
 31   12   3 
 32   2   0 
 33   3   3 
 34   4   12 
 35   7   0 
 36   11   2 
 37   1   0 
 38   6   9 
 39   2   7 
 40   1   0 
 41   4   1 
 42   11   6 
 43   6   7 
 44   1   2 
 45   15   0 
 46   11   2 
 47   3   2 
 48   6   7 
 49   4   15 
 50   10   0 
 51   10   2 
 52   3   1 
 53   2   3 
 54   2   6 
 55   14   0 
 56   12   3 
 57   3   2 
 58   4   4 
 59   2   6 
 60   15   0 
 61   0   224 
