NAME: ..//instances//e_vigo//TSP_PD_vrp200_60_5_0.00.tspBeta0.000000 
COMMENT: TSPSimoultaneousPickUpandDelivery_2008 
TYPE: TSPDC 
DIMENSION: 62 
CAPACITY: 370 
EDGE_WEIGHT_TYPE: EXPLICIT 
EDGE_WEIGHT_FORMAT: FULL_MATRIX 
EDGE_WEIGHT_SECTION: 
10000000        71        22        41        39        53        75        27        47        74        16        31        72        26        37        63        59        71        48        51        34        17        30        15        8        52        28        50        38        47        86        28        85        16        29        66        62        60        73        39        77        30        6        32        24        59        67        35        34        65        50        80        42        39        37        26        49        81        62        38        46         
 71        10000000        93        32        69        18        8        60        54        48        87        44        28        57        66        38        14        40        71        62        49        76        53        69        64        42        66        35        34        37        37        46        49        84        85        16        44        11        18        48        27        44        76        93        75        18        41        59        40        19        55        41        85        84        91        48        60        38        30        38        25         
 22        93        10000000        63        52        75        97        42        65        93        6        52        93        42        51        83        81        91        61        67        54        27        47        29        29        72        40        71        60        66        106        49        103        17        32        88        81        82        95        58        99        51        17        30        31        81        87        49        56        86        68        98        48        45        34        48        62        102        82        59        68         
 41        32        63        10000000        40        16        34        40        29        42        58        13        32        36        37        28        23        36        44        38        18        44        34        43        34        22        46        15        16        30        59        23        64        52        54        33        31        22        32        20        37        21        47        61        52        17        33        43        9        34        32        57        55        53        69        16        51        43        38        22        11         
 39        69        52        40        10000000        55        68        59        18        46        50        30        54        56        3        40        63        47        9        15        21        25        57        52        33        30        63        35        50        65        98        48        103        35        24        73        36        62        61        21        60        49        45        32        62        51        42        66        32        74        19        96        17        16        76        30        79        59        76        55        51         
 53        18        75        16        55        10000000        23        43        43        48        69        28        32        40        52        34        8        40        59        52        34        59        36        51        47        33        50        25        17        24        44        28        51        66        69        18        39        7        26        35        34        26        58        76        58        13        39        44        24        19        45        43        71        69        74        30        47        43        25        21        7         
 75        8        97        34        68        23        10000000        66        52        43        91        47        22        63        66        34        21        35        69        60        50        78        59        74        68        40        72        34        40        44        44        51        57        86        87        24        40        17        11        48        20        49        80        94        81        18        37        66        42        27        53        49        85        84        97        50        67        31        38        44        30         
 27        60        42        40        59        43        66        10000000        60        80        36        36        72        4        56        67        46        75        67        67        44        43        7        14        28        59        6        54        27        26        65        17        61        43        56        50        69        49        69        49        76        18        27        59        15        54        72        8        37        48        63        56        67        64        31        33        22        83        41        22        37         
 47        54        65        29        18        43        52        60        10000000        28        61        24        36        57        17        22        51        29        17        9        16        39        56        57        40        13        66        19        43        58        86        46        93        49        41        61        18        48        44        11        42        45        54        49        67        36        24        66        25        62        3        86        35        34        83        27        76        41        67        49        40         
 74        48        93        42        46        48        43        80        28        10000000        89        45        21        77        45        14        53        8        41        31        40        67        75        81        66        22        87        27        57        70        86        64        96        77        70        61        12        49        31        35        24        63        80        77        91        35        9        84        43        64        27        88        61        61        107        49        92        17        72        63        49         
 16        87        6        58        50        69        91        36        61        89        10000000        47        88        36        48        78        74        87        59        64        49        24        41        22        24        68        35        66        53        60        100        43        97        16        32        81        77        76        90        54        94        45        11        31        26        75        82        43        50        80        64        92        47        45        31        42        57        97        76        52        62         
 31        44        52        13        30        28        47        36        24        45        47        10000000        41        33        26        33        35        41        35        32        9        32        32        36        23        23        42        20        21        36        69        21        74        40        41        45        33        35        43        13        47        21        37        48        45        29        38        41        4        45        27        66        44        42        62        4        52        51        47        26        22         
 72        28        93        32        54        32        22        72        36        21        88        41        10000000        68        53        14        35        13        53        43        40        70        65        76        64        24        78        22        45        56        65        55        77        80        76        42        20        31        11        37        6        53        78        84        84        19        16        74        38        45        36        69        71        71        101        46        79        12        55        51        36         
 26        57        42        36        56        40        63        4        57        77        36        33        68        10000000        53        63        43        72        64        63        41        41        5        14        26        56        10        50        24        24        64        13        61        42        54        48        65        46        66        46        72        15        26        58        17        50        69        10        34        46        60        56        64        61        34        29        24        79        40        20        34         
 37        66        51        37        3        52        66        56        17        45        48        26        53        53        10000000        39        60        46        11        16        18        24        54        50        30        28        60        33        47        62        95        45        100        34        25        70        35        59        59        18        59        46        43        32        59        49        41        63        29        71        18        93        19        18        74        27        76        58        73        52        48         
 63        38        83        28        40        34        34        67        22        14        78        33        14        63        39        10000000        40        9        39        29        29        58        61        69        55        11        73        13        43        56        74        50        84        68        63        49        6        36        23        25        20        49        69        71        78        22        5        70        30        51        22        76        57        57        95        37        78        19        59        49        35         
 59        14        81        23        63        8        21        46        51        53        74        35        35        43        60        40        10000000        45        67        60        42        66        39        55        53        40        52        32        21        23        36        32        44        72        76        10        46        4        28        43        37        30        63        83        61        18        45        45        31        12        53        36        79        77        77        38        46        47        19        24        13         
 71        40        91        36        47        40        35        75        29        8        87        41        13        72        46        9        45        10000000        44        34        38        66        69        77        63        19        82        22        51        63        77        58        88        77        70        53        11        41        23        33        17        57        78        78        86        27        5        78        39        56        28        80        63        63        103        46        85        12        64        57        42         
 48        71        61        44        9        59        69        67        17        41        59        35        53        64        11        39        67        44        10000000        10        27        34        65        61        42        30        72        36        56        71        102        55        108        44        31        77        33        65        61        24        59        56        54        38        71        53        39        74        38        78        17        101        20        21        85        36        86        56        81        61        55         
 51        62        67        38        15        52        60        67        9        31        64        32        43        63        16        29        60        34        10        10000000        23        40        64        63        44        21        72        28        52        67        95        53        102        50        40        69        23        57        51        19        49        53        57        47        72        45        29        73        33        71        7        95        30        30        88        34        84        46        76        57        49         
 34        49        54        18        21        34        50        44        16        40        49        9        40        41        18        29        42        38        27        23        10000000        30        41        42        26        18        50        18        29        45        77        30        82        40        37        52        28        41        44        5        46        30        40        45        52        32        33        50        11        52        19        74        37        35        68        11        61        48        55        35        29         
 17        76        27        44        25        59        78        43        39        67        24        32        70        41        24        58        66        66        34        40        30        10000000        44        32        16        47        45        48        47        59        97        40        98        10        13        75        56        66        74        34        76        41        21        18        41        61        62        51        36        74        41        92        25        22        53        28        65        78        73        49        52         
 30        53        47        34        57        36        59        7        56        75        41        32        65        5        54        61        39        69        65        64        41        44        10000000        19        29        54        13        48        20        19        59        11        56        46        57        43        64        42        62        45        69        12        31        61        22        47        67        9        32        41        59        51        67        64        38        29        21        76        35        15        30         
 15        69        29        43        52        51        74        14        57        81        22        36        76        14        50        69        55        77        61        63        42        32        19        10000000        19        59        13        55        35        38        77        23        74        30        44        61        69        58        75        47        81        25        14        47        10        60        74        21        38        59        61        70        57        54        26        32        35        86        54        32        44         
 8        64        29        34        33        47        68        28        40        66        24        23        64        26        30        55        53        63        42        44        26        16        29        19        10000000        44        31        42        33        43        82        24        83        20        28        61        54        54        66        31        70        26        14        33        29        51        59        36        26        60        43        77        39        36        44        18        49        73        58        34        40         
 52        42        72        22        30        33        40        59        13        22        68        23        24        56        28        11        40        19        30        21        18        47        54        59        44        10000000        65        8        38        52        76        43        84        57        52        50        10        38        31        14        30        42        59        60        69        24        15        64        22        52        13        76        47        46        86        28        73        31        58        44        32         
 28        66        40        46        63        50        72        6        66        87        35        42        78        10        60        73        52        82        72        72        50        45        13        13        31        65        10000000        60        33        31        68        23        64        44        58        56        75        55        75        55        82        25        27        60        10        60        78        9        43        53        69        60        70        67        25        38        22        89        46        29        44         
 50        35        71        15        35        25        34        54        19        27        66        20        22        50        33        13        32        22        36        28        18        48        48        55        42        8        60        10000000        30        44        68        37        76        58        55        42        16        30        27        15        28        36        56        63        64        17        19        57        17        44        21        68        52        51        81        24        65        31        50        37        24         
 38        34        60        16        50        17        40        27        43        57        53        21        45        24        47        43        21        51        56        52        29        47        20        35        33        38        33        30        10000000        15        50        11        53        52        58        28        46        23        42        33        49        9        42        65        41        27        48        28        18        28        46        46        64        61        58        21        35        57        27        6        10         
 47        37        66        30        65        24        44        26        58        70        60        36        56        24        62        56        23        63        71        67        45        59        19        38        43        52        31        44        15        10000000        40        19        40        62        71        25        60        27        50        48        58        18        49        76        41        37        61        23        34        22        61        33        78        75        56        35        23        67        16        10        21         
 86        37        106        59        98        44        44        65        86        86        100        69        65        64        95        74        36        77        102        95        77        97        59        77        82        76        68        68        50        40        10000000        58        15        102        109        26        80        38        55        78        64        57        89        115        79        52        78        59        66        24        89        11        113        111        91        71        51        75        24        49        48         
 28        46        49        23        48        28        51        17        46        64        43        21        55        13        45        50        32        58        55        53        30        40        11        23        24        43        23        37        11        19        58        10000000        59        44        52        39        52        34        52        34        59        2        32        57        30        37        55        21        21        37        49        52        59        57        47        19        31        66        34        10        21         
 85        49        103        64        103        51        57        61        93        96        97        74        77        61        100        84        44        88        108        102        82        98        56        74        83        84        64        76        53        40        15        59        10000000        102        110        35        89        48        67        84        76        57        87        116        74        62        89        54        71        32        96        8        117        114        84        74        43        87        27        50        53         
 16        84        17        52        35        66        86        43        49        77        16        40        80        42        34        68        72        77        44        50        40        10        46        30        20        57        44        58        52        62        102        44        102        10000000        16        81        66        73        83        43        86        45        17        17        37        69        72        51        44        80        51        96        32        29        46        36        65        88        78        53        59         
 29        85        32        54        24        69        87        56        41        70        32        41        76        54        25        63        76        70        31        40        37        13        57        44        28        52        58        55        58        71        109        52        110        16        10000000        85        59        76        81        39        82        53        32        8        52        69        65        64        45        85        43        104        16        13        62        39        77        82        85        61        63         
 66        16        88        33        73        18        24        50        61        61        81        45        42        48        70        49        10        53        77        69        52        75        43        61        61        50        56        42        28        25        26        39        35        81        85        10000000        55        13        33        53        42        37        70        92        65        27        53        48        41        4        63        27        88        86        81        47        46        53        14        29        23         
 62        44        81        31        36        39        40        69        18        12        77        33        20        65        35        6        46        11        33        23        28        56        64        69        54        10        75        16        46        60        80        52        89        66        59        55        10000000        42        30        23        26        51        68        67        79        28        6        73        32        57        17        81        52        52        95        37        81        23        64        52        39         
 60        11        82        22        62        7        17        49        48        49        76        35        31        46        59        36        4        41        65        57        41        66        42        58        54        38        55        30        23        27        38        34        48        73        76        13        42        10000000        23        41        32        32        65        83        64        14        41        48        31        15        50        39        78        76        80        38        50        42        24        27        14         
 73        18        95        32        61        26        11        69        44        31        90        43        11        66        59        23        28        23        61        51        44        74        62        75        66        31        75        27        42        50        55        52        67        83        81        33        30        23        10000000        42        9        51        79        89        82        15        26        70        39        36        44        59        78        77        99        47        73        20        46        47        32         
 39        48        58        20        21        35        48        49        11        35        54        13        37        46        18        25        43        33        24        19        5        34        45        47        31        14        55        15        33        48        78        34        84        43        39        53        23        41        42        10000000        43        34        45        47        57        31        29        55        14        54        14        76        37        36        73        16        65        44        57        38        31         
 77        27        99        37        60        34        20        76        42        24        94        47        6        72        59        20        37        17        59        49        46        76        69        81        70        30        82        28        49        58        64        59        76        86        82        42        26        32        9        43        10000000        57        83        90        89        22        21        77        43        46        42        68        77        77        106        51        81        11        55        54        39         
 30        44        51        21        49        26        49        18        45        63        45        21        53        15        46        49        30        57        56        53        30        41        12        25        26        42        25        36        9        18        57        2        57        45        53        37        51        32        51        34        57        10000000        34        59        32        36        54        21        21        35        48        51        60        58        49        19        31        64        32        8        19         
 6        76        17        47        45        58        80        27        54        80        11        37        78        26        43        69        63        78        54        57        40        21        31        14        14        59        27        56        42        49        89        32        87        17        32        70        68        65        79        45        83        34        10000000        34        20        64        73        35        40        69        57        82        46        43        32        32        48        88        65        41        51         
 32        93        30        61        32        76        94        59        49        77        31        48        84        58        32        71        83        78        38        47        45        18        61        47        33        60        60        63        65        76        115        57        116        17        8        92        67        83        89        47        90        59        34        10000000        54        77        73        67        53        92        51        110        21        19        62        46        81        90        91        67        70         
 24        75        31        52        62        58        81        15        67        91        26        45        84        17        59        78        61        86        71        72        52        41        22        10        29        69        10        64        41        41        79        30        74        37        52        65        79        64        82        57        89        32        20        54        10000000        67        83        20        47        63        70        70        66        63        17        41        32        95        56        37        51         
 59        18        81        17        51        13        18        54        36        35        75        29        19        50        49        22        18        27        53        45        32        61        47        60        51        24        60        17        27        37        52        37        62        69        69        27        28        14        15        31        22        36        64        77        67        10000000        27        55        25        29        38        54        68        67        84        33        60        31        37        33        17         
 67        41        87        33        42        39        37        72        24        9        82        38        16        69        41        5        45        5        39        29        33        62        67        74        59        15        78        19        48        61        78        55        89        72        65        53        6        41        26        29        21        54        73        73        83        27        10000000        76        35        56        23        81        58        58        100        42        83        17        64        55        41         
 35        59        49        43        66        44        66        8        66        84        43        41        74        10        63        70        45        78        74        73        50        51        9        21        36        64        9        57        28        23        59        21        54        51        64        48        73        48        70        55        77        21        35        67        20        55        76        10000000        42        45        69        50        74        72        33        39        14        85        37        23        38         
 34        40        56        9        32        24        42        37        25        43        50        4        38        34        29        30        31        39        38        33        11        36        32        38        26        22        43        17        18        34        66        21        71        44        45        41        32        31        39        14        43        21        40        53        47        25        35        42        10000000        42        28        63        47        45        64        8        52        48        44        24        18         
 65        19        86        34        74        19        27        48        62        64        80        45        45        46        71        51        12        56        78        71        52        74        41        59        60        52        53        44        28        22        24        37        32        80        85        4        57        15        36        54        46        35        69        92        63        29        56        45        42        10000000        64        24        89        87        78        47        43        56        11        28        23         
 50        55        68        32        19        45        53        63        3        27        64        27        36        60        18        22        53        28        17        7        19        41        59        61        43        13        69        21        46        61        89        49        96        51        43        63        17        50        44        14        42        48        57        51        70        38        23        69        28        64        10000000        88        35        35        86        30        80        40        69        52        43         
 80        41        98        57        96        43        49        56        86        88        92        66        69        56        93        76        36        80        101        95        74        92        51        70        77        76        60        68        46        33        11        52        8        96        104        27        81        39        59        76        68        51        82        110        70        54        81        50        63        24        88        10000000        110        107        82        67        41        79        19        43        46         
 42        85        48        55        17        71        85        67        35        61        47        44        71        64        19        57        79        63        20        30        37        25        67        57        39        47        70        52        64        78        113        59        117        32        16        88        52        78        78        37        77        60        46        21        66        68        58        74        47        89        35        110        10000000        3        77        43        88        75        90        67        66         
 39        84        45        53        16        69        84        64        34        61        45        42        71        61        18        57        77        63        21        30        35        22        64        54        36        46        67        51        61        75        111        57        114        29        13        86        52        76        77        36        77        58        43        19        63        67        58        72        45        87        35        107        3        10000000        74        40        85        75        88        65        64         
 37        91        34        69        76        74        97        31        83        107        31        62        101        34        74        95        77        103        85        88        68        53        38        26        44        86        25        81        58        56        91        47        84        46        62        81        95        80        99        73        106        49        32        62        17        84        100        33        64        78        86        82        77        74        10000000        58        41        112        70        53        68         
 26        48        48        16        30        30        50        33        27        49        42        4        46        29        27        37        38        46        36        34        11        28        29        32        18        28        38        24        21        35        71        19        74        36        39        47        37        38        47        16        51        19        32        46        41        33        42        39        8        47        30        67        43        40        58        10000000        50        55        48        25        24         
 49        60        62        51        79        47        67        22        76        92        57        52        79        24        76        78        46        85        86        84        61        65        21        35        49        73        22        65        35        23        51        31        43        65        77        46        81        50        73        65        81        31        48        81        32        60        83        14        52        43        80        41        88        85        41        50        10000000        90        33        29        43         
 81        38        102        43        59        43        31        83        41        17        97        51        12        79        58        19        47        12        56        46        48        78        76        86        73        31        89        31        57        67        75        66        87        88        82        53        23        42        20        44        11        64        88        90        95        31        17        85        48        56        40        79        75        75        112        55        90        10000000        66        63        47         
 62        30        82        38        76        25        38        41        67        72        76        47        55        40        73        59        19        64        81        76        55        73        35        54        58        58        46        50        27        16        24        34        27        78        85        14        64        24        46        57        55        32        65        91        56        37        64        37        44        11        69        19        90        88        70        48        33        66        10000000        24        27         
 38        38        59        22        55        21        44        22        49        63        52        26        51        20        52        49        24        57        61        57        35        49        15        32        34        44        29        37        6        10        49        10        50        53        61        29        52        27        47        38        54        8        41        67        37        33        55        23        24        28        52        43        67        65        53        25        29        63        24        10000000        16         
 46        25        68        11        51        7        30        37        40        49        62        22        36        34        48        35        13        42        55        49        29        52        30        44        40        32        44        24        10        21        48        21        53        59        63        23        39        14        32        31        39        19        51        70        51        17        41        38        18        23        43        46        66        64        68        24        43        47        27        16        10000000         
 DEMAND_SECTION: 
 0   370   0 
 1   7   1 
 2   11   7 
 3   5   6 
 4   3   11 
 5   3   0 
 6   8   1 
 7   3   2 
 8   5   6 
 9   1   0 
 10   4   0 
 11   2   0 
 12   7   4 
 13   1   0 
 14   2   8 
 15   17   0 
 16   14   3 
 17   2   1 
 18   8   11 
 19   2   6 
 20   7   0 
 21   4   1 
 22   2   1 
 23   1   0 
 24   3   10 
 25   12   0 
 26   4   1 
 27   3   1 
 28   1   0 
 29   2   6 
 30   10   0 
 31   16   3 
 32   9   5 
 33   8   10 
 34   4   12 
 35   19   0 
 36   4   1 
 37   10   6 
 38   2   1 
 39   1   4 
 40   4   0 
 41   11   2 
 42   3   2 
 43   1   0 
 44   3   8 
 45   3   0 
 46   11   2 
 47   11   6 
 48   7   10 
 49   3   12 
 50   18   0 
 51   7   1 
 52   3   1 
 53   4   5 
 54   1   3 
 55   10   0 
 56   12   3 
 57   1   0 
 58   7   9 
 59   4   12 
 60   19   0 
 61   0   205 
