NAME: ..//instances//e_vigo//TSP_PD_vrp200_60_6_0.00.tspBeta0.000000 
COMMENT: TSPSimoultaneousPickUpandDelivery_2008 
TYPE: TSPDC 
DIMENSION: 62 
CAPACITY: 384 
EDGE_WEIGHT_TYPE: EXPLICIT 
EDGE_WEIGHT_FORMAT: FULL_MATRIX 
EDGE_WEIGHT_SECTION: 
10000000        54        51        71        98        57        88        33        40        26        92        85        61        47        93        14        86        19        64        72        81        60        80        41        38        81        13        53        66        89        38        58        58        62        86        40        44        60        89        79        23        34        45        28        10        76        15        65        74        47        21        30        13        30        52        79        87        27        36        45        79         
 54        10000000        29        26        46        4        74        43        17        32        38        31        26        56        44        60        33        44        28        26        68        38        54        56        19        35        45        10        13        75        58        28        9        35        35        26        29        43        44        44        43        34        35        28        60        54        39        16        49        9        41        32        60        39        36        26        74        47        67        10        65         
 51        29        10000000        25        67        32        100        58        18        42        58        50        54        75        70        50        48        52        56        26        95        11        82        32        19        63        49        38        30        102        72        55        23        62        60        11        7        14        72        72        53        50        9        37        60        81        39        44        77        22        50        46        62        23        7        50        101        30        78        31        92         
 71        26        25        10000000        45        26        97        68        31        55        36        28        49        82        52        73        24        67        50        1        93        26        76        57        33        49        66        35        16        98        83        52        17        59        42        33        31        31        57        63        66        59        35        50        80        77        57        34        72        27        64        57        81        47        30        32        98        55        91        35        90         
 98        46        67        45        10000000        42        78        79        62        73        9        17        44        85        15        105        22        86        42        44        77        71        57        98        64        26        88        46        37        79        92        49        45        51        14        70        70        76        25        42        83        71        76        71        103        60        84        34        57        54        82        72        103        84        73        19        80        92        103        54        74         
 57        4        32        26        42        10000000        72        44        21        34        34        28        23        57        40        63        30        47        25        26        67        41        51        60        23        31        48        9        12        73        59        26        11        33        31        30        33        46        40        40        45        35        39        30        63        52        42        12        47        13        43        34        63        43        39        22        72        51        69        13        64         
 88        74        100        97        78        72        10000000        56        83        67        80        81        48        43        63        101        87        69        47        97        7        111        22        118        83        54        75        64        82        1        54        46        82        39        67        93        98        115        53        37        65        57        104        70        85        20        81        63        25        79        68        62        81        99        107        72        3        103        64        69        9         
 33        43        58        68        79        44        56        10000000        40        16        75        70        36        17        70        46        73        14        38        68        48        69        48        65        39        57        20        36        56        57        15        32        51        33        66        48        53        72        64        50        10        9        58        21        31        44        27        46        42        41        12        12        28        48        62        62        55        50        25        33        46         
 40        17        18        31        62        21        83        40        10000000        25        54        47        38        57        61        44        47        36        41        32        77        30        66        39        2        52        35        22        26        84        55        39        18        45        52        11        15        33        61        58        36        32        21        20        48        64        26        32        60        8        34        28        49        22        24        43        83        30        62        14        74         
 26        32        42        55        73        34        67        16        25        10000000        67        62        35        33        67        37        64        13        37        55        60        54        55        51        24        55        15        28        45        69        30        32        38        36        61        32        37        56        63        53        12        10        42        5        30        52        15        40        49        28        9        5        29        33        47        55        67        36        37        21        58         
 92        38        58        36        9        34        80        75        54        67        10000000        8        41        82        20        98        13        80        40        35        78        62        58        89        56        26        82        40        28        81        88        46        37        50        13        61        61        67        28        43        78        66        67        64        97        61        77        28        57        46        76        66        97        75        64        13        82        84        99        47        75         
 85        31        50        28        17        28        81        70        47        62        8        10000000        38        79        25        90        7        74        38        28        78        54        59        81        49        27        76        34        21        82        84        43        29        48        16        53        53        59        32        44        72        61        59        58        91        61        70        24        57        39        71        61        91        67        56        9        83        76        95        40        75         
 61        26        54        49        44        23        48        36        38        35        41        38        10000000        41        34        71        44        45        3        49        44        64        28        77        39        21        49        16        34        50        48        4        34        10        31        49        52        68        29        20        42        29        59        34        64        28        48        16        24        32        41        31        62        58        60        29        49        65        59        24        40         
 47        56        75        82        85        57        43        17        57        33        82        79        41        10000000        74        61        83        30        43        82        35        86        42        83        56        60        35        48        69        44        12        37        65        34        72        65        70        89        66        49        26        25        75        38        43        37        44        55        37        56        29        29        39        65        79        70        41        67        23        47        34         
 93        44        70        52        15        40        63        70        61        67        20        25        34        74        10000000        102        31        79        32        51        62        76        42        99        63        13        82        41        40        64        82        38        47        40        10        70        72        81        10        28        76        63        78        65        97        46        79        29        43        53        75        65        96        83        76        21        65        91        94        50        60         
 14        60        50        73        105        63        101        46        44        37        98        90        71        61        102        10000000        91        32        74        74        94        57        92        32        42        90        26        61        70        103        51        69        62        73        94        40        43        56        99        90        36        46        42        37        21        89        23        73        86        51        34        41        25        27        49        86        100        21        49        52        92         
 86        33        48        24        22        30        87        73        47        64        13        7        44        83        31        91        10000000        77        43        23        84        50        65        79        49        34        78        37        20        88        88        48        29        53        22        52        52        55        39        50        75        64        57        60        93        67        71        28        63        39        73        64        93        66        53        15        89        75        98        43        81         
 19        44        52        67        86        47        69        14        36        13        80        74        45        30        79        32        77        10000000        48        67        62        63        61        54        35        66        6        40        58        71        22        42        51        44        73        41        46        64        74        62        4        16        49        17        19        58        15        52        55        40        4        14        17        37        55        67        68        38        26        34        60         
 64        28        56        50        42        25        47        38        41        37        40        38        3        43        32        74        43        48        10000000        50        43        66        26        79        42        19        52        19        35        48        50        6        36        10        29        51        55        70        26        17        44        31        62        37        66        27        51        16        22        34        44        34        65        61        63        29        48        68        62        26        40         
 72        26        26        1        44        26        97        68        32        55        35        28        49        82        51        74        23        67        50        10000000        92        27        76        58        34        49        67        35        15        98        84        52        17        59        41        33        31        32        56        63        67        59        35        50        80        77        58        34        72        28        64        57        81        47        31        31        98        56        92        35        89         
 81        68        95        93        77        67        7        48        77        60        78        78        44        35        62        94        84        62        43        92        10000000        105        20        111        77        52        68        59        77        9        47        41        77        34        65        87        92        109        52        35        58        50        98        63        78        17        74        59        21        73        60        55        74        92        101        69        6        97        57        63        3         
 60        38        11        26        71        41        111        69        30        54        62        54        64        86        76        57        50        63        66        27        105        10000000        92        33        30        71        60        48        36        112        84        65        31        73        66        22        17        5        79        82        64        61        15        49        70        92        49        52        87        32        61        57        72        30        9        55        112        37        89        42        102         
 80        54        82        76        57        51        22        48        66        55        58        59        28        42        42        92        65        61        26        76        20        92        10000000        103        67        32        66        45        60        23        53        27        62        20        45        76        80        96        32        15        57        46        87        57        79        5        70        42        6        60        58        50        76        84        88        50        24        90        65        51        18         
 41        56        32        57        98        60        118        65        39        51        89        81        77        83        99        32        79        54        79        58        111        33        103        10000000        38        91        48        62        61        119        76        76        53        83        90        29        28        30        100        97        57        61        22        48        51        101        39        71        97        47        54        56        55        19        27        80        117        15        77        53        108         
 38        19        19        33        64        23        83        39        2        24        56        49        39        56        63        42        49        35        42        34        77        30        67        38        10000000        53        33        24        29        85        54        40        20        46        54        10        14        33        63        59        35        31        21        19        46        65        24        34        61        10        32        27        47        20        24        45        84        28        60        16        74         
 81        35        63        49        26        31        54        57        52        55        26        27        21        60        13        90        34        66        19        49        52        71        32        91        53        10000000        69        30        35        55        69        25        40        26        13        62        64        76        9        17        63        50        71        53        84        35        67        20        31        44        62        52        83        73        70        19        56        81        80        39        49         
 13        45        49        66        88        48        75        20        35        15        82        76        49        35        82        26        78        6        52        67        68        60        66        48        33        69        10000000        42        58        77        27        46        51        49        76        38        43        61        77        66        10        21        46        18        15        63        11        54        60        40        8        17        15        33        52        69        74        33        29        35        66         
 53        10        38        35        46        9        64        36        22        28        40        34        16        48        41        61        37        40        19        35        59        48        45        62        24        30        42        10000000        21        65        51        18        19        25        34        33        36        52        39        35        38        27        43        25        58        44        38        12        40        16        37        27        57        44        44        27        64        51        61        9        55         
 66        13        30        16        37        12        82        56        26        45        28        21        34        69        40        70        20        58        35        15        77        36        60        61        29        35        58        21        10000000        83        71        37        9        44        30        33        33        41        43        48        56        47        39        41        73        61        51        18        57        19        54        46        73        47        37        19        83        55        81        24        74         
 89        75        102        98        79        73        1        57        84        69        81        82        50        44        64        103        88        71        48        98        9        112        23        119        85        55        77        65        83        10000000        56        47        84        40        68        95        99        116        54        38        67        59        105        71        86        22        82        65        26        80        69        64        82        100        108        73        3        105        65        70        11         
 38        58        72        83        92        59        54        15        55        30        88        84        48        12        82        51        88        22        50        84        47        84        53        76        54        69        27        51        71        56        10000000        44        66        43        79        62        67        86        75        59        20        25        71        35        32        49        38        61        48        56        23        27        28        60        76        76        53        61        12        48        46         
 58        28        55        52        49        26        46        32        39        32        46        43        4        37        38        69        48        42        6        52        41        65        27        76        40        25        46        18        37        47        44        10000000        37        7        35        49        53        69        32        21        38        25        60        32        60        26        46        20        22        33        38        28        59        58        62        34        47        64        55        24        38         
 58        9        23        17        45        11        82        51        18        38        37        29        34        65        47        62        29        51        36        17        77        31        62        53        20        40        51        19        9        84        66        37        10000000        44        37        24        25        36        49        51        50        42        31        34        65        62        43        21        58        11        48        40        66        38        30        27        83        47        75        18        74         
 62        35        62        59        51        33        39        33        45        36        50        48        10        34        40        73        53        44        10        59        34        73        20        83        46        26        49        25        44        40        43        7        44        10000000        38        56        60        77        32        17        41        28        67        37        63        19        51        26        15        40        41        32        61        64        69        39        39        70        54        31        30         
 86        35        60        42        14        31        67        66        52        61        13        16        31        72        10        94        22        73        29        41        65        66        45        90        54        13        76        34        30        68        79        35        37        38        10000000        61        62        71        16        30        70        58        69        59        91        48        72        22        44        44        69        59        90        74        67        11        69        82        90        42        62         
 40        26        11        33        70        30        93        48        11        32        61        53        49        65        70        40        52        41        51        33        87        22        76        29        10        62        38        33        33        95        62        49        24        56        61        10000000        5        24        71        68        42        40        11        27        49        75        28        42        71        18        39        36        51        14        15        51        94        23        67        25        84         
 44        29        7        31        70        33        98        53        15        37        61        53        52        70        72        43        52        46        55        31        92        17        80        28        14        64        43        36        33        99        67        53        25        60        62        5        10000000        19        73        72        47        45        7        32        54        79        32        44        75        21        44        41        56        16        9        52        98        24        72        29        89         
 60        43        14        31        76        46        115        72        33        56        67        59        68        89        81        56        55        64        70        32        109        5        96        30        33        76        61        52        41        116        86        69        36        77        71        24        19        10000000        84        86        66        64        15        51        70        96        50        57        91        36        63        60        73        30        9        60        115        35        90        46        106         
 89        44        72        57        25        40        53        64        61        63        28        32        29        66        10        99        39        74        26        56        52        79        32        100        63        9        77        39        43        54        75        32        49        32        16        71        73        84        10000000        18        70        57        79        62        92        36        76        29        33        53        70        60        91        82        79        25        55        90        86        48        50         
 79        44        72        63        42        40        37        50        58        53        43        44        20        49        28        90        50        62        17        63        35        82        15        97        59        17        66        35        48        38        59        21        51        17        30        68        72        86        18        10000000        58        45        78        53        80        18        67        30        15        51        59        49        78        78        79        35        39        85        71        43        32         
 23        43        53        66        83        45        65        10        36        12        78        72        42        26        76        36        75        4        44        67        58        64        57        57        35        63        10        38        56        67        20        38        50        41        70        42        47        66        70        58        10000000        13        51        16        22        53        18        50        51        39        3        11        20        40        57        65        64        41        25        33        56         
 34        34        50        59        71        35        57        9        32        10        66        61        29        25        63        46        64        16        31        59        50        61        46        61        31        50        21        27        47        59        25        25        42        28        58        40        45        64        57        45        13        10000000        51        14        35        43        24        38        40        32        13        5        33        42        55        53        57        46        34        24        48         
 45        35        9        35        76        39        104        58        21        42        67        59        59        75        78        42        57        49        62        35        98        15        87        22        21        71        46        43        39        105        71        60        31        67        69        11        7        15        79        78        51        51        10000000        37        55        86        35        51        82        27        48        46        58        15        7        58        104        22        75        36        95         
 28        28        37        50        71        30        70        21        20        5        64        58        34        38        65        37        60        17        37        50        63        49        57        48        19        53        18        25        41        71        35        32        34        37        59        27        32        51        62        53        16        14        37        10000000        33        54        14        37        51        23        14        9        33        29        42        52        70        34        42        18        61         
 10        60        60        80        103        63        85        31        48        30        97        91        64        43        97        21        93        19        66        80        78        70        79        51        46        84        15        58        73        86        32        60        65        63        91        49        54        70        92        80        22        35        55        33        10000000        75        22        70        73        54        22        32        4        40        62        85        84        37        28        50        76         
 76        54        81        77        60        52        20        44        64        52        61        61        28        37        46        89        67        58        27        77        17        92        5        101        65        35        63        44        61        22        49        26        62        19        48        75        79        96        36        18        53        43        86        54        75        10000000        67        43        4        59        55        47        72        82        88        52        22        88        60        50        14         
 15        39        39        57        84        42        81        27        26        15        77        70        48        44        79        23        71        15        51        58        74        49        70        39        24        67        11        38        51        82        38        46        43        51        72        28        32        50        76        67        18        24        35        14        22        67        10000000        50        64        32        15        19        24        22        41        64        80        23        40        30        72         
 65        16        44        34        34        12        63        46        32        40        28        24        16        55        29        73        28        52        16        34        59        52        42        71        34        20        54        12        18        65        61        20        21        26        22        42        44        57        29        30        50        38        51        37        70        43        50        10000000        39        24        48        38        69        54        51        16        65        62        71        21        56         
 74        49        77        72        57        47        25        42        60        49        57        57        24        37        43        86        63        55        22        72        21        87        6        97        61        31        60        40        57        26        48        22        58        15        44        71        75        91        33        15        51        40        82        51        73        4        64        39        10000000        55        52        44        70        78        83        48        26        84        59        46        18         
 47        9        22        27        54        13        79        41        8        28        46        39        32        56        53        51        39        40        34        28        73        32        60        47        10        44        40        16        19        80        56        33        11        40        44        18        21        36        53        51        39        32        27        23        54        59        32        24        55        10000000        37        29        54        30        28        35        79        38        64        10        70         
 21        41        50        64        82        43        68        12        34        9        76        71        41        29        75        34        73        4        44        64        60        61        58        54        32        62        8        37        54        69        23        38        48        41        69        39        44        63        70        59        3        13        48        14        22        55        15        48        52        37        10000000        10        21        37        53        64        67        38        28        31        58         
 30        32        46        57        72        34        62        12        28        5        66        61        31        29        65        41        64        14        34        57        55        57        50        56        27        52        17        27        46        64        27        28        40        32        59        36        41        60        60        49        11        5        46        9        32        47        19        38        44        29        10        10000000        31        38        51        54        62        41        35        22        53         
 13        60        62        81        103        63        81        28        49        29        97        91        62        39        96        25        93        17        65        81        74        72        76        55        47        83        15        57        73        82        28        59        66        61        90        51        56        73        91        78        20        33        58        33        4        72        24        69        70        54        21        31        10000000        43        64        84        80        40        23        50        72         
 30        39        23        47        84        43        99        48        22        33        75        67        58        65        83        27        66        37        61        47        92        30        84        19        20        73        33        44        47        100        60        58        38        64        74        14        16        30        82        78        40        42        15        29        40        82        22        54        78        30        37        38        43        10000000        22        65        99        9        62        35        89         
 52        36        7        30        73        39        107        62        24        47        64        56        60        79        76        49        53        55        63        31        101        9        88        27        24        70        52        44        37        108        76        62        30        69        67        15        9        9        79        79        57        55        7        42        62        88        41        51        83        28        53        51        64        22        10000000        56        107        29        81        38        98         
 79        26        50        32        19        22        72        62        43        55        13        9        29        70        21        86        15        67        29        31        69        55        50        80        45        19        69        27        19        73        76        34        27        39        11        51        52        60        25        35        65        53        58        52        85        52        64        16        48        35        64        54        84        65        56        10000000        74        73        87        34        66         
 87        74        101        98        80        72        3        55        83        67        82        83        49        41        65        100        89        68        48        98        6        112        24        117        84        56        74        64        83        3        53        47        83        39        69        94        98        115        55        39        64        57        104        70        84        22        80        65        26        79        67        62        80        99        107        74        10000000        103        62        69        9         
 27        47        30        55        92        51        103        50        30        36        84        76        65        67        91        21        75        38        68        56        97        37        90        15        28        81        33        51        55        105        61        64        47        70        82        23        24        35        90        85        41        46        22        34        37        88        23        62        84        38        38        41        40        9        29        73        103        10000000        62        42        94         
 36        67        78        91        103        69        64        25        62        37        99        95        59        23        94        49        98        26        62        92        57        89        65        77        60        80        29        61        81        65        12        55        75        54        90        67        72        90        86        71        25        34        75        42        28        60        40        71        59        64        28        35        23        62        81        87        62        62        10000000        57        56         
 45        10        31        35        54        13        69        33        14        21        47        40        24        47        50        52        43        34        26        35        63        42        51        53        16        39        35        9        24        70        48        24        18        31        42        25        29        46        48        43        33        24        36        18        50        50        30        21        46        10        31        22        50        35        38        34        69        42        57        10000000        60         
 79        65        92        90        74        64        9        46        74        58        75        75        40        34        60        92        81        60        40        89        3        102        18        108        74        49        66        55        74        11        46        38        74        30        62        84        89        106        50        32        56        48        95        61        76        14        72        56        18        70        58        53        72        89        98        66        9        94        56        60        10000000         
 DEMAND_SECTION: 
 0   384   0 
 1   2   0 
 2   3   1 
 3   3   4 
 4   1   3 
 5   15   0 
 6   8   1 
 7   7   4 
 8   2   1 
 9   3   8 
 10   16   0 
 11   8   2 
 12   2   1 
 13   7   10 
 14   2   6 
 15   15   0 
 16   14   3 
 17   5   2 
 18   8   11 
 19   2   6 
 20   15   0 
 21   14   3 
 22   1   0 
 23   5   6 
 24   3   10 
 25   6   0 
 26   4   1 
 27   2   0 
 28   8   10 
 29   3   9 
 30   16   0 
 31   6   1 
 32   11   7 
 33   5   7 
 34   2   4 
 35   13   0 
 36   16   3 
 37   11   7 
 38   8   11 
 39   2   5 
 40   2   0 
 41   8   1 
 42   7   4 
 43   3   4 
 44   2   5 
 45   9   0 
 46   3   0 
 47   1   0 
 48   6   9 
 49   2   5 
 50   4   0 
 51   8   2 
 52   9   5 
 53   7   10 
 54   4   12 
 55   2   0 
 56   4   1 
 57   8   5 
 58   1   1 
 59   3   9 
 60   17   0 
 61   0   220 
