NAME: ..//instances//e_vigo//TSP_PD_vrp200_60_4_0.00.tspBeta0.000000 
COMMENT: TSPSimoultaneousPickUpandDelivery_2008 
TYPE: TSPDC 
DIMENSION: 62 
CAPACITY: 426 
EDGE_WEIGHT_TYPE: EXPLICIT 
EDGE_WEIGHT_FORMAT: FULL_MATRIX 
EDGE_WEIGHT_SECTION: 
10000000        50        56        40        31        58        34        69        17        56        76        44        23        54        29        24        39        40        8        60        35        25        53        11        55        43        48        41        42        35        32        10        52        53        39        35        31        56        43        42        59        25        47        26        54        3        33        34        56        43        10        42        10        27        27        40        30        57        35        11        39         
 50        10000000        8        90        45        24        81        20        38        52        30        91        68        4        72        74        11        89        44        32        61        71        46        39        55        67        97        91        50        23        39        59        2        66        54        75        36        57        93        92        9        56        17        71        17        47        83        79        36        47        58        33        59        33        51        90        74        50        57        61        59         
 56        8        10000000        96        53        18        88        13        46        50        22        98        73        5        80        80        19        96        50        38        69        79        54        45        63        68        104        97        58        25        41        66        8        75        55        82        45        65        99        99        5        59        25        75        23        53        89        83        32        47        64        33        65        41        54        96        82        47        65        68        60         
 40        90        96        10000000        60        97        17        109        54        86        115        16        32        94        28        18        79        9        47        95        50        23        81        51        79        61        8        6        67        74        67        31        92        69        66        34        64        79        5        6        99        49        85        31        92        43        10        30        92        74        34        78        32        63        55        7        25        89        54        29        62         
 31        45        53        60        10000000        64        45        64        17        77        75        54        54        49        34        51        36        55        25        36        17        37        22        27        24        72        65        57        11        46        53        33        46        25        65        33        9        25        60        59        53        54        31        56        38        29        50        64        69        65        41        58        40        13        55        63        36        77        12        36        67         
 58        24        18        97        64        10000000        92        23        52        34        20        102        69        23        85        79        29        99        54        56        79        82        70        49        78        57        105        99        71        23        33        69        25        88        44        89        56        80        101        100        23        53        41        72        41        56        91        78        15        34        63        22        65        51        47        95        87        30        76        69        49         
 34        81        88        17        45        92        10000000        101        43        87        109        10        36        86        12        23        70        10        38        81        34        10        66        44        63        66        20        13        51        69        65        24        83        52        68        17        51        63        16        14        91        51        73        37        81        36        8        40        90        75        33        76        30        51        57        23        9        89        38        23        66         
 69        20        13        109        64        23        101        10000000        58        57        13        111        85        16        92        93        31        109        63        43        81        91        62        58        71        78        117        110        68        37        52        79        19        84        65        95        56        73        112        111        11        71        34        88        30        66        102        95        38        56        76        42        78        53        65        109        94        53        76        80        70         
 17        38        46        54        17        52        43        58        10000000        60        67        53        40        42        34        40        27        52        9        43        28        33        37        10        40        55        60        53        28        31        36        23        40        42        48        37        14        42        56        55        47        38        31        43        39        14        45        51        55        48        27        42        27        10        38        55        36        60        25        26        50         
 56        52        50        86        77        34        87        57        60        10000000        52        96        55        53        85        68        50        91        57        83        88        80        90        52        97        30        94        90        86        34        24        65        54        102        21        91        71        99        91        91        55        37        66        56        69        55        84        60        19        13        55        21        58        65        31        82        85        4        86        64        25         
 76        30        22        115        75        20        109        13        67        52        10000000        119        89        27        101        98        40        116        70        57        92        99        75        65        84        77        123        117        80        41        53        86        30        97        64        104        67        86        119        118        23        73        46        91        43        73        109        98        33        54        82        42        84        63        67        114        103        48        87        87        70         
 44        91        98        16        54        102        10        111        53        96        119        10000000        43        95        21        29        80        7        48        90        42        20        74        53        70        73        14        10        60        79        74        33        93        58        76        23        60        70        12        10        100        59        83        43        90        46        12        44        99        83        41        85        38        60        65        23        18        98        46        33        73         
 23        68        73        32        54        69        36        85        40        55        89        43        10000000        72        39        14        57        37        31        82        54        32        76        32        77        30        40        36        64        48        37        23        70        73        34        47        54        78        36        37        77        17        68        3        75        25        31        11        62        43        13        49        14        50        24        28        38        57        55        20        31         
 54        4        5        94        49        23        86        16        42        53        27        95        72        10000000        77        78        16        94        48        33        65        76        49        43        58        69        102        95        53        26        42        64        3        70        57        79        40        60        97        96        5        60        20        75        18        51        87        82        36        49        62        35        64        37        54        95        79        50        61        65        61         
 29        72        80        28        34        85        12        92        34        85        101        21        39        77        10000000        28        61        22        31        70        22        8        54        37        51        68        32        25        39        63        62        20        74        41        67        7        40        51        28        26        81        51        63        41        70        31        18        45        85        72        32        71        29        40        55        34        3        86        26        21        66         
 24        74        80        18        51        79        23        93        40        68        98        29        14        78        28        10000000        63        23        32        83        47        21        73        35        73        44        26        22        60        57        48        18        76        66        48        35        53        74        23        23        83        31        71        14        79        28        17        17        74        56        16        60        15        50        37        16        26        70        49        15        45         
 39        11        19        79        36        29        70        31        27        50        40        80        57        16        61        63        10000000        78        32        33        52        60        42        28        50        59        86        79        42        17        33        48        13        59        48        64        27        52        82        81        21        47        16        60        20        36        71        68        37        42        47        30        48        23        43        79        63        48        48        50        52         
 40        89        96        9        55        99        10        109        52        91        116        7        37        94        22        23        78        10000000        46        91        44        19        76        51        73        67        10        4        62        76        70        30        91        62        71        26        61        73        6        4        99        54        82        37        90        43        7        38        95        78        37        81        34        60        60        16        19        93        48        29        68         
 8        44        50        47        25        54        38        63        9        57        70        48        31        48        31        32        32        46        10000000        52        32        29        46        5        49        48        54        47        35        31        32        16        45        48        42        36        23        50        49        48        53        30        39        34        47        5        39        41        54        44        18        40        18        19        31        48        33        57        30        18        43         
 60        32        38        95        36        56        81        43        43        83        57        90        82        33        70        83        33        91        52        10000000        51        72        22        50        31        91        101        93        33        50        65        65        31        46        80        69        31        33        96        95        34        76        17        85        15        57        85        93        68        75        70        62        70        33        73        97        73        81        46        68        84         
 35        61        69        50        17        79        34        81        28        88        92        42        54        65        22        47        52        44        32        51        10000000        28        33        36        29        78        54        47        18        59        64        31        62        20        74        19        25        29        50        48        70        60        48        56        55        34        40        62        83        75        43        70        40        28        62        55        25        88        5        34        74         
 25        71        79        23        37        82        10        91        33        80        99        20        32        76        8        21        60        19        29        72        28        10000000        58        34        56        61        28        21        44        60        57        15        73        47        61        15        42        57        24        22        81        44        64        33        71        27        13        38        81        66        25        67        22        41        49        27        6        81        31        15        59         
 53        46        54        81        22        70        66        62        37        90        75        74        76        49        54        73        42        76        46        22        33        58        10000000        46        9        91        86        79        14        57        69        55        46        24        83        51        22        11        81        80        52        74        29        78        32        51        71        86        79        80        63        70        62        28        73        85        57        89        28        58        85         
 11        39        45        51        27        49        44        58        10        52        65        53        32        43        37        35        28        51        5        50        36        34        46        10000000        50        45        58        52        38        26        28        21        41        51        39        41        24        52        54        53        48        28        36        35        44        8        44        43        49        40        20        35        21        19        28        51        38        52        34        22        40         
 55        55        63        79        24        78        63        71        40        97        84        70        77        58        51        73        50        73        49        31        29        56        9        50        10000000        96        83        76        13        64        75        56        55        16        88        47        27        2        79        77        61        78        38        80        41        53        69        87        87        87        65        77        64        33        78        84        54        96        25        59        90         
 43        67        68        61        72        57        66        78        55        30        77        73        30        69        68        44        59        67        48        91        78        61        91        45        96        10000000        68        65        83        44        27        48        69        96        13        75        69        97        66        66        73        18        74        30        80        44        61        32        45        23        36        36        39        63        18        56        67        34        77        46        8         
 48        97        104        8        65        105        20        117        60        94        123        14        40        102        32        26        86        10        54        101        54        28        86        58        83        68        10000000        7        71        82        75        38        99        72        74        36        70        83        4        6        107        57        91        39        99        50        15        37        100        82        42        86        40        69        64        13        29        97        58        36        70         
 41        91        97        6        57        99        13        110        53        90        117        10        36        95        25        22        79        4        47        93        47        21        79        52        76        65        7        10000000        64        76        69        31        92        65        70        30        63        76        3        1        100        52        84        35        92        44        8        35        95        77        36        81        34        62        59        13        22        92        51        30        66         
 42        50        58        67        11        71        51        68        28        86        80        60        64        53        39        60        42        62        35        33        18        44        14        38        13        83        71        64        10000000        54        63        42        50        17        76        37        16        14        67        65        57        65        34        67        39        40        57        74        78        75        51        67        50        22        65        71        42        86        14        46        77         
 35        23        25        74        46        23        69        37        31        34        41        79        48        26        63        57        17        76        31        50        59        60        57        26        64        44        82        76        54        10000000        16        45        25        71        31        67        38        66        78        77        30        34        33        51        37        33        68        58        24        25        40        13        42        33        28        73        64        32        56        46        36         
 32        39        41        67        53        33        65        52        36        24        53        74        37        42        62        48        33        70        32        65        64        57        69        28        75        27        75        69        63        16        10000000        42        41        78        15        67        48        76        71        71        46        20        48        39        53        31        63        45        26        12        33        12        36        42        13        64        62        25        62        42        19         
 10        59        66        31        33        69        24        79        23        65        86        33        23        64        20        18        48        30        16        65        31        15        55        21        56        48        38        31        42        45        42        10000000        61        51        47        26        35        56        34        33        69        31        54        25        62        13        23        32        66        52        12        52        9        33        35        32        20        67        32        3        46         
 52        2        8        92        46        25        83        19        40        54        30        93        70        3        74        76        13        91        45        31        62        73        46        41        55        69        99        92        50        25        41        61        10000000        67        56        76        37        57        95        94        8        58        17        73        16        49        84        81        37        49        60        35        61        34        53        92        76        51        58        63        61         
 53        66        75        69        25        88        52        84        42        102        97        58        73        70        41        66        59        62        48        46        20        47        24        51        16        96        72        65        17        71        78        51        67        10000000        90        35        32        15        68        66        74        78        50        76        55        52        59        82        94        90        62        83        60        38        79        74        43        102        18        54        91         
 39        54        55        66        65        44        68        65        48        21        64        76        34        57        67        48        48        71        42        80        74        61        83        39        88        13        74        70        76        31        15        47        56        90        10000000        74        61        89        71        71        60        17        63        35        68        39        64        39        33        10        36        23        39        55        12        62        67        24        72        46        5         
 35        75        82        34        33        89        17        95        37        91        104        23        47        79        7        35        64        26        36        69        19        15        51        41        47        75        36        30        37        67        67        26        76        35        74        10000000        40        47        33        30        84        57        64        48        71        36        24        53        90        78        38        76        35        42        62        40        9        92        23        28        73         
 31        36        45        64        9        56        51        56        14        71        67        60        54        40        40        53        27        61        23        31        25        42        22        24        27        69        70        63        16        38        48        35        37        32        61        40        10000000        29        65        64        45        52        23        57        30        28        55        65        62        60        41        51        41        6        51        67        43        70        21        38        63         
 56        57        65        79        25        80        63        73        42        99        86        70        78        60        51        74        52        73        50        33        29        57        11        52        2        97        83        76        14        66        76        56        57        15        89        47        29        10000000        79        77        63        79        40        81        43        54        69        88        89        88        66        79        64        34        79        84        54        98        25        60        91         
 43        93        99        5        60        101        16        112        56        91        119        12        36        97        28        23        82        6        49        96        50        24        81        54        79        66        4        3        67        78        71        34        95        68        71        33        65        79        10000000        2        102        53        87        36        94        46        11        35        97        78        38        82        36        64        60        12        25        93        54        32        67         
 42        92        99        6        59        100        14        111        55        91        118        10        37        96        26        23        81        4        48        95        48        22        80        53        77        66        6        1        65        77        71        33        94        66        71        30        64        77        2        10000000        101        54        85        36        93        45        9        36        96        79        38        82        35        63        60        13        23        93        52        31        68         
 59        9        5        99        53        23        91        11        47        55        23        100        77        5        81        83        21        99        53        34        70        81        52        48        61        73        107        100        57        30        46        69        8        74        60        84        45        63        102        101        10000000        64        23        79        20        56        92        87        37        52        67        38        68        42        58        99        83        52        65        70        65         
 25        56        59        49        54        53        51        71        38        37        73        59        17        60        51        31        47        54        30        76        60        44        74        28        78        18        57        52        65        34        20        31        58        78        17        57        52        79        53        54        64        10000000        60        19        67        26        47        25        45        25        19        32        22        47        7        45        50        40        59        29        15         
 47        17        25        85        31        41        73        34        31        66        46        83        68        20        63        71        16        82        39        17        48        64        29        36        38        74        91        84        34        33        48        54        17        50        63        64        23        40        87        85        23        60        10000000        71        8        44        76        79        52        58        56        45        57        22        57        86        65        64        43        57        67         
 26        71        75        31        56        72        37        88        43        56        91        43        3        75        41        14        60        37        34        85        56        33        78        35        80        30        39        35        67        51        39        25        73        76        35        48        57        81        36        36        79        19        71        10000000        78        28        31        8        64        44        16        51        17        53        26        26        39        59        57        22        32         
 54        17        23        92        38        41        81        30        39        69        43        90        75        18        70        79        20        90        47        15        55        71        32        44        41        80        99        92        39        37        53        62        16        55        68        71        30        43        94        93        20        67        8        78        10000000        51        84        86        53        62        64        49        64        30        63        94        73        67        50        64        72         
 3        47        53        43        29        56        36        66        14        55        73        46        25        51        31        28        36        43        5        57        34        27        51        8        53        44        50        44        40        33        31        13        49        52        39        36        28        54        46        45        56        26        44        28        51        10000000        36        36        54        42        13        40        13        24        27        43        32        56        34        14        39         
 33        83        89        10        50        91        8        102        45        84        109        12        31        87        18        17        71        7        39        85        40        13        71        44        69        61        15        8        57        68        63        23        84        59        64        24        55        69        11        9        92        47        76        31        84        36        10000000        33        88        71        30        74        27        54        53        16        16        86        44        22        61         
 34        79        83        30        64        78        40        95        51        60        98        44        11        82        45        17        68        38        41        93        62        38        86        43        87        32        37        35        74        58        45        32        81        82        39        53        65        88        35        36        87        25        79        8        86        36        33        10000000        70        49        23        57        24        61        32        24        44        63        64        29        35         
 56        36        32        92        69        15        90        38        55        19        33        99        62        36        85        74        37        95        54        68        83        81        79        49        87        45        100        95        78        24        26        66        37        94        33        90        62        89        97        96        37        45        52        64        53        54        88        70        10000000        22        59        14        61        57        38        90        86        16        80        67        38         
 43        47        47        74        65        34        75        56        48        13        54        83        43        49        72        56        42        78        44        75        75        66        80        40        87        23        82        77        75        25        12        52        49        90        10        78        60        88        78        79        52        25        58        44        62        42        71        49        22        10000000        42        14        45        54        18        70        72        15        74        51        16         
 10        58        64        34        41        63        33        76        27        55        82        41        13        62        32        16        47        37        18        70        43        25        63        20        65        36        42        36        51        40        33        12        60        62        36        38        41        66        38        38        67        19        56        16        64        13        30        23        59        42        10000000        44        3        37        24        33        31        57        43        10        34         
 42        33        33        78        58        22        76        42        42        21        42        85        49        35        71        60        30        81        40        62        70        67        70        35        77        36        86        81        67        13        12        52        35        83        23        76        51        79        82        82        38        32        45        51        49        40        74        57        14        14        44        10000000        47        45        25        76        72        19        68        52        28         
 10        59        65        32        40        65        30        78        27        58        84        38        14        64        29        15        48        34        18        70        40        22        62        21        64        39        40        34        50        42        36        9        61        60        39        35        41        64        36        35        68        22        57        17        64        13        27        24        61        45        3        47        10000000        37        27        31        28        60        41        7        37         
 27        33        41        63        13        51        51        53        10        65        63        60        50        37        40        50        23        60        19        33        28        41        28        19        33        63        69        62        22        33        42        33        34        38        55        42        6        34        64        63        42        47        22        53        30        24        54        61        57        54        37        45        37        10000000        45        65        43        64        25        35        57         
 27        51        54        55        55        47        57        65        38        31        67        65        24        54        55        37        43        60        31        73        62        49        73        28        78        18        64        59        65        28        13        35        53        79        12        62        51        79        60        60        58        7        57        26        63        27        53        32        38        18        24        25        27        45        10000000        52        55        33        61        34        12         
 40        90        96        7        63        95        23        109        55        82        114        23        28        95        34        16        79        16        48        97        55        27        85        51        84        56        13        13        71        73        64        32        92        74        62        40        67        84        12        13        99        45        86        26        94        43        16        24        90        70        33        76        31        65        52        10000000        31        85        59        30        58         
 30        74        82        25        36        87        9        94        36        85        103        18        38        79        3        26        63        19        33        73        25        6        57        38        54        67        29        22        42        64        62        20        76        43        67        9        43        54        25        23        83        50        65        39        73        32        16        44        86        72        31        72        28        43        55        31        10000000        87        29        21        65         
 57        50        47        89        77        30        89        53        60        4        48        98        57        50        86        70        48        93        57        81        88        81        89        52        96        34        97        92        86        32        25        67        51        102        24        92        70        98        93        93        52        40        64        59        67        56        86        63        16        15        57        19        60        64        33        85        87        10000000        86        66        28         
 35        57        65        54        12        76        38        76        25        86        87        46        55        61        26        49        48        48        30        46        5        31        28        34        25        77        58        51        14        56        62        32        58        18        72        23        21        25        54        52        65        59        43        57        50        34        44        64        80        74        43        68        41        25        61        59        29        86        10000000        36        73         
 11        61        68        29        36        69        23        80        26        64        87        33        20        65        21        15        50        29        18        68        34        15        58        22        59        46        36        30        46        46        42        3        63        54        46        28        38        60        32        31        70        29        57        22        64        14        22        29        67        51        10        52        7        35        34        30        21        66        36        10000000        45         
 39        59        60        62        67        49        66        70        50        25        70        73        31        61        66        45        52        68        43        84        74        59        85        40        90        8        70        66        77        36        19        46        61        91        5        73        63        91        67        68        65        15        67        32        72        39        61        35        38        16        34        28        37        57        12        58        65        28        73        45        10000000         
 DEMAND_SECTION: 
 0   426   0 
 1   12   2 
 2   8   4 
 3   6   9 
 4   1   3 
 5   11   0 
 6   8   1 
 7   12   7 
 8   8   11 
 9   3   8 
 10   12   0 
 11   12   2 
 12   12   7 
 13   2   3 
 14   3   9 
 15   19   0 
 16   14   3 
 17   12   7 
 18   8   11 
 19   2   6 
 20   19   0 
 21   11   2 
 22   3   2 
 23   5   6 
 24   3   10 
 25   18   0 
 26   4   1 
 27   4   2 
 28   1   1 
 29   1   3 
 30   4   0 
 31   9   2 
 32   6   4 
 33   2   2 
 34   2   4 
 35   5   0 
 36   9   2 
 37   9   5 
 38   3   4 
 39   1   2 
 40   6   0 
 41   14   3 
 42   12   7 
 43   6   9 
 44   3   12 
 45   17   0 
 46   3   0 
 47   8   5 
 48   8   11 
 49   1   2 
 50   12   0 
 51   5   1 
 52   9   5 
 53   1   0 
 54   3   9 
 55   18   0 
 56   4   1 
 57   6   3 
 58   4   6 
 59   1   0 
 60   1   0 
 61   0   219 
