NAME: ..//instances//e_vigo//TSP_PD_vrp200_80_6_0.00.tspBeta0.000000 
COMMENT: TSPSimoultaneousPickUpandDelivery_2008 
TYPE: TSPDC 
DIMENSION: 82 
CAPACITY: 504 
EDGE_WEIGHT_TYPE: EXPLICIT 
EDGE_WEIGHT_FORMAT: FULL_MATRIX 
EDGE_WEIGHT_SECTION: 
10000000        54        51        71        98        57        88        33        40        26        92        85        61        47        93        14        86        19        64        72        81        60        80        41        38        81        13        53        66        89        38        58        58        62        86        40        44        60        89        79        23        34        45        28        10        76        15        65        74        47        21        30        13        30        52        79        87        27        36        45        79        79        33        68        86        56        41        88        69        46        28        60        84        62        62        41        45        40        23        77        51         
 54        10000000        29        26        46        4        74        43        17        32        38        31        26        56        44        60        33        44        28        26        68        38        54        56        19        35        45        10        13        75        58        28        9        35        35        26        29        43        44        44        43        34        35        28        60        54        39        16        49        9        41        32        60        39        36        26        74        47        67        10        65        38        54        51        51        41        63        66        34        41        35        46        33        29        27        89        13        25        31        54        46         
 51        29        10000000        25        67        32        100        58        18        42        58        50        54        75        70        50        48        52        56        26        95        11        82        32        19        63        49        38        30        102        72        55        23        62        60        11        7        14        72        72        53        50        9        37        60        81        39        44        77        22        50        46        62        23        7        50        101        30        78        31        92        67        34        77        80        12        77        94        63        14        24        17        59        57        12        91        19        44        32        82        68         
 71        26        25        10000000        45        26        97        68        31        55        36        28        49        82        52        73        24        67        50        1        93        26        76        57        33        49        66        35        16        98        83        52        17        59        42        33        31        31        57        63        66        59        35        50        80        77        57        34        72        27        64        57        81        47        30        32        98        55        91        35        90        55        59        75        70        32        88        89        55        39        46        35        42        52        13        110        28        50        49        77        72         
 98        46        67        45        10000000        42        78        79        62        73        9        17        44        85        15        105        22        86        42        44        77        71        57        98        64        26        88        46        37        79        92        49        45        51        14        70        70        76        25        42        83        71        76        71        103        60        84        34        57        54        82        72        103        84        73        19        80        92        103        54        74        33        98        63        44        77        96        67        42        81        81        80        16        46        58        130        58        62        77        60        72         
 57        4        32        26        42        10000000        72        44        21        34        34        28        23        57        40        63        30        47        25        26        67        41        51        60        23        31        48        9        12        73        59        26        11        33        31        30        33        46        40        40        45        35        39        30        63        52        42        12        47        13        43        34        63        43        39        22        72        51        69        13        64        34        58        49        48        44        64        64        31        45        39        49        29        26        29        92        17        26        35        52        46         
 88        74        100        97        78        72        10000000        56        83        67        80        81        48        43        63        101        87        69        47        97        7        111        22        118        83        54        75        64        82        1        54        46        82        39        67        93        98        115        53        37        65        57        104        70        85        20        81        63        25        79        68        62        81        99        107        72        3        103        64        69        9        46        112        23        34        112        54        11        42        109        93        117        65        45        100        93        82        58        80        20        37         
 33        43        58        68        79        44        56        10000000        40        16        75        70        36        17        70        46        73        14        38        68        48        69        48        65        39        57        20        36        56        57        15        32        51        33        66        48        53        72        64        50        10        9        58        21        31        44        27        46        42        41        12        12        28        48        62        62        55        50        25        33        46        53        58        36        56        68        20        55        42        61        42        73        63        35        64        51        42        19        29        45        19         
 40        17        18        31        62        21        83        40        10000000        25        54        47        38        57        61        44        47        36        41        32        77        30        66        39        2        52        35        22        26        84        55        39        18        45        52        11        15        33        61        58        36        32        21        20        48        64        26        32        60        8        34        28        49        22        24        43        83        30        62        14        74        53        37        59        65        30        60        77        47        26        18        35        50        40        24        79        4        26        18        65        50         
 26        32        42        55        73        34        67        16        25        10000000        67        62        35        33        67        37        64        13        37        55        60        54        55        51        24        55        15        28        45        69        30        32        38        36        61        32        37        56        63        53        12        10        42        5        30        52        15        40        49        28        9        5        29        33        47        55        67        36        37        21        58        53        44        45        60        52        35        64        43        46        27        57        58        35        49        57        27        13        13        53        30         
 92        38        58        36        9        34        80        75        54        67        10000000        8        41        82        20        98        13        80        40        35        78        62        58        89        56        26        82        40        28        81        88        46        37        50        13        61        61        67        28        43        78        66        67        64        97        61        77        28        57        46        76        66        97        75        64        13        82        84        99        47        75        34        90        63        47        67        93        69        41        72        72        71        15        43        48        124        50        57        69        61        69         
 85        31        50        28        17        28        81        70        47        62        8        10000000        38        79        25        90        7        74        38        28        78        54        59        81        49        27        76        34        21        82        84        43        29        48        16        53        53        59        32        44        72        61        59        58        91        61        70        24        57        39        71        61        91        67        56        9        83        76        95        40        75        35        82        62        49        59        89        71        40        64        65        63        17        41        40        119        42        51        62        61        66         
 61        26        54        49        44        23        48        36        38        35        41        38        10000000        41        34        71        44        45        3        49        44        64        28        77        39        21        49        16        34        50        48        4        34        10        31        49        52        68        29        20        42        29        59        34        64        28        48        16        24        32        41        31        62        58        60        29        49        65        59        24        40        18        73        26        28        66        52        41        9        64        53        71        28        3        52        87        36        21        43        29        28         
 47        56        75        82        85        57        43        17        57        33        82        79        41        10000000        74        61        83        30        43        82        35        86        42        83        56        60        35        48        69        44        12        37        65        34        72        65        70        89        66        49        26        25        75        38        43        37        44        55        37        56        29        29        39        65        79        70        41        67        23        47        34        54        75        29        53        85        13        45        44        79        60        90        69        39        80        53        58        32        46        38        13         
 93        44        70        52        15        40        63        70        61        67        20        25        34        74        10000000        102        31        79        32        51        62        76        42        99        63        13        82        41        40        64        82        38        47        40        10        70        72        81        10        28        76        63        78        65        97        46        79        29        43        53        75        65        96        83        76        21        65        91        94        50        60        20        98        50        29        81        86        52        30        83        79        85        11        35        62        121        57        55        73        46        60         
 14        60        50        73        105        63        101        46        44        37        98        90        71        61        102        10000000        91        32        74        74        94        57        92        32        42        90        26        61        70        103        51        69        62        73        94        40        43        56        99        90        36        46        42        37        21        89        23        73        86        51        34        41        25        27        49        86        100        21        49        52        92        89        23        81        97        52        54        100        80        42        27        54        91        72        62        47        48        50        29        89        64         
 86        33        48        24        22        30        87        73        47        64        13        7        44        83        31        91        10000000        77        43        23        84        50        65        79        49        34        78        37        20        88        88        48        29        53        22        52        52        55        39        50        75        64        57        60        93        67        71        28        63        39        73        64        93        66        53        15        89        75        98        43        81        41        80        68        55        56        93        77        46        62        64        59        23        46        37        121        42        55        63        68        71         
 19        44        52        67        86        47        69        14        36        13        80        74        45        30        79        32        77        10000000        48        67        62        63        61        54        35        66        6        40        58        71        22        42        51        44        73        41        46        64        74        62        4        16        49        17        19        58        15        52        55        40        4        14        17        37        55        67        68        38        26        34        60        63        46        50        68        60        27        69        53        52        32        65        70        45        60        45        39        24        20        59        33         
 64        28        56        50        42        25        47        38        41        37        40        38        3        43        32        74        43        48        10000000        50        43        66        26        79        42        19        52        19        35        48        50        6        36        10        29        51        55        70        26        17        44        31        62        37        66        27        51        16        22        34        44        34        65        61        63        29        48        68        62        26        40        15        76        25        25        68        54        39        7        67        56        73        26        4        54        89        38        24        46        27        30         
 72        26        26        1        44        26        97        68        32        55        35        28        49        82        51        74        23        67        50        10000000        92        27        76        58        34        49        67        35        15        98        84        52        17        59        41        33        31        32        56        63        67        59        35        50        80        77        58        34        72        28        64        57        81        47        31        31        98        56        92        35        89        55        60        75        69        33        88        88        55        40        47        36        41        52        14        111        28        50        50        77        72         
 81        68        95        93        77        67        7        48        77        60        78        78        44        35        62        94        84        62        43        92        10000000        105        20        111        77        52        68        59        77        9        47        41        77        34        65        87        92        109        52        35        58        50        98        63        78        17        74        59        21        73        60        55        74        92        101        69        6        97        57        63        3        44        105        18        34        106        47        13        38        103        87        111        63        40        95        86        76        52        73        17        30         
 60        38        11        26        71        41        111        69        30        54        62        54        64        86        76        57        50        63        66        27        105        10000000        92        33        30        71        60        48        36        112        84        65        31        73        66        22        17        5        79        82        64        61        15        49        70        92        49        52        87        32        61        57        72        30        9        55        112        37        89        42        102        75        38        88        89        7        89        104        72        16        33        9        65        67        14        101        30        56        43        92        80         
 80        54        82        76        57        51        22        48        66        55        58        59        28        42        42        92        65        61        26        76        20        92        10000000        103        67        32        66        45        60        23        53        27        62        20        45        76        80        96        32        15        57        46        87        57        79        5        70        42        6        60        58        50        76        84        88        50        24        90        65        51        18        24        98        13        14        94        55        13        21        92        79        99        43        25        81        95        64        43        67        4        30         
 41        56        32        57        98        60        118        65        39        51        89        81        77        83        99        32        79        54        79        58        111        33        103        10000000        38        91        48        62        61        119        76        76        53        83        90        29        28        30        100        97        57        61        22        48        51        101        39        71        97        47        54        56        55        19        27        80        117        15        77        53        108        93        9        95        104        27        80        114        86        18        24        27        88        79        43        79        43        60        38        102        81         
 38        19        19        33        64        23        83        39        2        24        56        49        39        56        63        42        49        35        42        34        77        30        67        38        10000000        53        33        24        29        85        54        40        20        46        54        10        14        33        63        59        35        31        21        19        46        65        24        34        61        10        32        27        47        20        24        45        84        28        60        16        74        55        35        60        67        30        59        78        49        25        16        34        52        42        25        77        7        26        16        66        50         
 81        35        63        49        26        31        54        57        52        55        26        27        21        60        13        90        34        66        19        49        52        71        32        91        53        10000000        69        30        35        55        69        25        40        26        13        62        64        76        9        17        63        50        71        53        84        35        67        20        31        44        62        52        83        73        70        19        56        81        80        39        49        8        88        38        22        75        72        44        17        76        69        79        11        22        58        108        48        42        61        35        47         
 13        45        49        66        88        48        75        20        35        15        82        76        49        35        82        26        78        6        52        67        68        60        66        48        33        69        10000000        42        58        77        27        46        51        49        76        38        43        61        77        66        10        21        46        18        15        63        11        54        60        40        8        17        15        33        52        69        74        33        29        35        66        67        40        55        73        57        32        74        57        49        28        61        73        49        59        44        38        28        17        64        38         
 53        10        38        35        46        9        64        36        22        28        40        34        16        48        41        61        37        40        19        35        59        48        45        62        24        30        42        10000000        21        65        51        18        19        25        34        33        36        52        39        35        38        27        43        25        58        44        38        12        40        16        37        27        57        44        44        27        64        51        61        9        55        31        59        41        43        50        56        57        25        48        39        54        31        19        37        85        20        17        32        45        37         
 66        13        30        16        37        12        82        56        26        45        28        21        34        69        40        70        20        58        35        15        77        36        60        61        29        35        58        21        10000000        83        71        37        9        44        30        33        33        41        43        48        56        47        39        41        73        61        51        18        57        19        54        46        73        47        37        19        83        55        81        24        74        40        61        59        55        41        76        73        40        44        44        45        29        37        23        102        22        38        43        62        58         
 89        75        102        98        79        73        1        57        84        69        81        82        50        44        64        103        88        71        48        98        9        112        23        119        85        55        77        65        83        10000000        56        47        84        40        68        95        99        116        54        38        67        59        105        71        86        22        82        65        26        80        69        64        82        100        108        73        3        105        65        70        11        47        113        25        35        114        55        12        43        110        95        119        66        47        102        94        83        59        82        21        38         
 38        58        72        83        92        59        54        15        55        30        88        84        48        12        82        51        88        22        50        84        47        84        53        76        54        69        27        51        71        56        10000000        44        66        43        79        62        67        86        75        59        20        25        71        35        32        49        38        61        48        56        23        27        28        60        76        76        53        61        12        48        46        63        68        41        64        82        5        57        53        74        54        86        76        47        79        41        57        34        41        49        23         
 58        28        55        52        49        26        46        32        39        32        46        43        4        37        38        69        48        42        6        52        41        65        27        76        40        25        46        18        37        47        44        10000000        37        7        35        49        53        69        32        21        38        25        60        32        60        26        46        20        22        33        38        28        59        58        62        34        47        64        55        24        38        21        72        23        28        67        48        39        11        65        53        72        32        3        55        83        37        19        42        27        24         
 58        9        23        17        45        11        82        51        18        38        37        29        34        65        47        62        29        51        36        17        77        31        62        53        20        40        51        19        9        84        66        37        10000000        44        37        24        25        36        49        51        50        42        31        34        65        62        43        21        58        11        48        40        66        38        30        27        83        47        75        18        74        44        53        60        58        34        71        75        42        36        36        39        36        37        18        95        14        33        35        63        55         
 62        35        62        59        51        33        39        33        45        36        50        48        10        34        40        73        53        44        10        59        34        73        20        83        46        26        49        25        44        40        43        7        44        10000000        38        56        60        77        32        17        41        28        67        37        63        19        51        26        15        40        41        32        61        64        69        39        39        70        54        31        30        21        78        16        24        74        46        32        10        72        59        79        35        7        62        83        44        24        47        20        21         
 86        35        60        42        14        31        67        66        52        61        13        16        31        72        10        94        22        73        29        41        65        66        45        90        54        13        76        34        30        68        79        35        37        38        10000000        61        62        71        16        30        70        58        69        59        91        48        72        22        44        44        69        59        90        74        67        11        69        82        90        42        62        21        89        50        34        71        83        56        29        74        71        75        3        32        53        117        48        49        65        48        58         
 40        26        11        33        70        30        93        48        11        32        61        53        49        65        70        40        52        41        51        33        87        22        76        29        10        62        38        33        33        95        62        49        24        56        61        10000000        5        24        71        68        42        40        11        27        49        75        28        42        71        18        39        36        51        14        15        51        94        23        67        25        84        64        28        70        76        20        67        88        58        16        13        25        59        51        22        80        14        36        21        76        60         
 44        29        7        31        70        33        98        53        15        37        61        53        52        70        72        43        52        46        55        31        92        17        80        28        14        64        43        36        33        99        67        53        25        60        62        5        10000000        19        73        72        47        45        7        32        54        79        32        44        75        21        44        41        56        16        9        52        98        24        72        29        89        67        29        74        79        15        72        92        62        12        17        20        61        55        18        85        17        40        26        80        64         
 60        43        14        31        76        46        115        72        33        56        67        59        68        89        81        56        55        64        70        32        109        5        96        30        33        76        61        52        41        116        86        69        36        77        71        24        19        10000000        84        86        66        64        15        51        70        96        50        57        91        36        63        60        73        30        9        60        115        35        90        46        106        80        36        91        93        4        90        108        76        14        33        4        70        71        19        101        33        59        44        96        83         
 89        44        72        57        25        40        53        64        61        63        28        32        29        66        10        99        39        74        26        56        52        79        32        100        63        9        77        39        43        54        75        32        49        32        16        71        73        84        10000000        18        70        57        79        62        92        36        76        29        33        53        70        60        91        82        79        25        55        90        86        48        50        11        98        40        19        83        78        42        22        85        78        88        16        29        66        115        57        50        70        36        52         
 79        44        72        63        42        40        37        50        58        53        43        44        20        49        28        90        50        62        17        63        35        82        15        97        59        17        66        35        48        38        59        21        51        17        30        68        72        86        18        10000000        58        45        78        53        80        18        67        30        15        51        59        49        78        78        79        35        39        85        71        43        32        9        93        22        8        84        62        27        10        84        73        89        28        18        69        100        55        40        63        18        36         
 23        43        53        66        83        45        65        10        36        12        78        72        42        26        76        36        75        4        44        67        58        64        57        57        35        63        10        38        56        67        20        38        50        41        70        42        47        66        70        58        10000000        13        51        16        22        53        18        50        51        39        3        11        20        40        57        65        64        41        25        33        56        59        49        46        64        62        25        65        49        54        35        66        67        41        61        47        39        21        22        54        28         
 34        34        50        59        71        35        57        9        32        10        66        61        29        25        63        46        64        16        31        59        50        61        46        61        31        50        21        27        47        59        25        25        42        28        58        40        45        64        57        45        13        10000000        51        14        35        43        24        38        40        32        13        5        33        42        55        53        57        46        34        24        48        46        54        35        52        61        30        55        36        55        37        65        55        28        55        59        33        9        23        44        21         
 45        35        9        35        76        39        104        58        21        42        67        59        59        75        78        42        57        49        62        35        98        15        87        22        21        71        46        43        39        105        71        60        31        67        69        11        7        15        79        78        51        51        10000000        37        55        86        35        51        82        27        48        46        58        15        7        58        104        22        75        36        95        73        25        81        86        11        76        98        68        5        18        15        67        62        21        86        23        46        30        86        70         
 28        28        37        50        71        30        70        21        20        5        64        58        34        38        65        37        60        17        37        50        63        49        57        48        19        53        18        25        41        71        35        32        34        37        59        27        32        51        62        53        16        14        37        10000000        33        54        14        37        51        23        14        9        33        29        42        52        70        34        42        18        61        52        42        48        61        47        40        67        43        41        23        52        56        35        44        61        23        13        10        55        34         
 10        60        60        80        103        63        85        31        48        30        97        91        64        43        97        21        93        19        66        80        78        70        79        51        46        84        15        58        73        86        32        60        65        63        91        49        54        70        92        80        22        35        55        33        10000000        75        22        70        73        54        22        32        4        40        62        85        84        37        28        50        76        82        42        67        87        66        34        86        71        56        37        69        88        64        71        31        52        43        30        76        49         
 76        54        81        77        60        52        20        44        64        52        61        61        28        37        46        89        67        58        27        77        17        92        5        101        65        35        63        44        61        22        49        26        62        19        48        75        79        96        36        18        53        43        86        54        75        10000000        67        43        4        59        55        47        72        82        88        52        22        88        60        50        14        27        96        8        19        93        50        13        22        91        77        98        46        25        81        90        63        41        64        1        26         
 15        39        39        57        84        42        81        27        26        15        77        70        48        44        79        23        71        15        51        58        74        49        70        39        24        67        11        38        51        82        38        46        43        51        72        28        32        50        76        67        18        24        35        14        22        67        10000000        50        64        32        15        19        24        22        41        64        80        23        40        30        72        66        31        60        74        46        42        79        57        37        17        50        69        49        48        53        30        27        8        68        44         
 65        16        44        34        34        12        63        46        32        40        28        24        16        55        29        73        28        52        16        34        59        52        42        71        34        20        54        12        18        65        61        20        21        26        22        42        44        57        29        30        50        38        51        37        70        43        50        10000000        39        24        48        38        69        54        51        16        65        62        71        21        56        23        69        42        37        56        65        55        21        56        50        60        19        19        40        96        28        28        44        43        43         
 74        49        77        72        57        47        25        42        60        49        57        57        24        37        43        86        63        55        22        72        21        87        6        97        61        31        60        40        57        26        48        22        58        15        44        71        75        91        33        15        51        40        82        51        73        4        64        39        10000000        55        52        44        70        78        83        48        26        84        59        46        18        24        92        8        17        89        50        17        17        87        73        94        42        21        76        89        59        38        61        5        25         
 47        9        22        27        54        13        79        41        8        28        46        39        32        56        53        51        39        40        34        28        73        32        60        47        10        44        40        16        19        80        56        33        11        40        44        18        21        36        53        51        39        32        27        23        54        59        32        24        55        10000000        37        29        54        30        28        35        79        38        64        10        70        46        45        55        59        34        61        72        41        33        26        39        42        35        24        84        4        24        24        60        48         
 21        41        50        64        82        43        68        12        34        9        76        71        41        29        75        34        73        4        44        64        60        61        58        54        32        62        8        37        54        69        23        38        48        41        69        39        44        63        70        59        3        13        48        14        22        55        15        48        52        37        10000000        10        21        37        53        64        67        38        28        31        58        59        46        47        65        59        28        66        49        51        31        63        67        41        58        48        36        21        18        56        30         
 30        32        46        57        72        34        62        12        28        5        66        61        31        29        65        41        64        14        34        57        55        57        50        56        27        52        17        27        46        64        27        28        40        32        59        36        41        60        60        49        11        5        46        9        32        47        19        38        44        29        10        10000000        31        38        51        54        62        41        35        22        53        49        49        40        56        56        32        60        39        50        32        61        56        32        52        58        30        10        18        48        25         
 13        60        62        81        103        63        81        28        49        29        97        91        62        39        96        25        93        17        65        81        74        72        76        55        47        83        15        57        73        82        28        59        66        61        90        51        56        73        91        78        20        33        58        33        4        72        24        69        70        54        21        31        10000000        43        64        84        80        40        23        50        72        80        46        64        84        68        30        82        69        59        39        72        87        62        72        30        53        41        31        73        46         
 30        39        23        47        84        43        99        48        22        33        75        67        58        65        83        27        66        37        61        47        92        30        84        19        20        73        33        44        47        100        60        58        38        64        74        14        16        30        82        78        40        42        15        29        40        82        22        54        78        30        37        38        43        10000000        22        65        99        9        62        35        89        75        15        76        86        26        64        95        68        16        6        29        72        60        35        71        26        41        19        83        63         
 52        36        7        30        73        39        107        62        24        47        64        56        60        79        76        49        53        55        63        31        101        9        88        27        24        70        52        44        37        108        76        62        30        69        67        15        9        9        79        79        57        55        7        42        62        88        41        51        83        28        53        51        64        22        10000000        56        107        29        81        38        98        73        31        83        87        6        81        100        69        9        25        11        65        63        16        92        25        50        35        88        74         
 79        26        50        32        19        22        72        62        43        55        13        9        29        70        21        86        15        67        29        31        69        55        50        80        45        19        69        27        19        73        76        34        27        39        11        51        52        60        25        35        65        53        58        52        85        52        64        16        48        35        64        54        84        65        56        10000000        74        73        87        34        66        27        79        53        41        60        80        62        31        63        61        64        10        32        42        112        39        44        57        52        58         
 87        74        101        98        80        72        3        55        83        67        82        83        49        41        65        100        89        68        48        98        6        112        24        117        84        56        74        64        83        3        53        47        83        39        69        94        98        115        55        39        64        57        104        70        84        22        80        65        26        79        67        62        80        99        107        74        10000000        103        62        69        9        48        111        24        36        113        52        14        43        109        93        118        67        46        101        91        82        58        80        21        36         
 27        47        30        55        92        51        103        50        30        36        84        76        65        67        91        21        75        38        68        56        97        37        90        15        28        81        33        51        55        105        61        64        47        70        82        23        24        35        90        85        41        46        22        34        37        88        23        62        84        38        38        41        40        9        29        73        103        10000000        62        42        94        82        8        81        92        31        65        100        74        21        12        34        80        67        43        66        34        47        23        89        67         
 36        67        78        91        103        69        64        25        62        37        99        95        59        23        94        49        98        26        62        92        57        89        65        77        60        80        29        61        81        65        12        55        75        54        90        67        72        90        86        71        25        34        75        42        28        60        40        71        59        64        28        35        23        62        81        87        62        62        10000000        57        56        75        68        52        76        86        10        68        64        78        58        91        87        58        86        30        64        43        46        61        35         
 45        10        31        35        54        13        69        33        14        21        47        40        24        47        50        52        43        34        26        35        63        42        51        53        16        39        35        9        24        70        48        24        18        31        42        25        29        46        48        43        33        24        36        18        50        50        30        21        46        10        31        22        50        35        38        34        69        42        57        10000000        60        40        50        46        51        43        53        63        33        41        30        48        40        26        33        79        13        15        23        51        38         
 79        65        92        90        74        64        9        46        74        58        75        75        40        34        60        92        81        60        40        89        3        102        18        108        74        49        66        55        74        11        46        38        74        30        62        84        89        106        50        32        56        48        95        61        76        14        72        56        18        70        58        53        72        89        98        66        9        94        56        60        10000000        41        102        15        31        103        46        13        35        100        84        108        60        37        92        86        73        49        71        14        28         
 79        38        67        55        33        34        46        53        53        53        34        35        18        54        20        89        41        63        15        55        44        75        24        93        55        8        67        31        40        47        63        21        44        21        21        64        67        80        11        9        59        46        73        52        82        27        66        23        24        46        59        49        80        75        73        27        48        82        75        40        41        10000000        90        30        14        79        67        36        11        79        70        83        19        18        62        104        50        40        61        27        41         
 33        54        34        59        98        58        112        58        37        44        90        82        73        75        98        23        80        46        76        60        105        38        98        9        35        88        40        59        61        113        68        72        53        78        89        28        29        36        98        93        49        54        25        42        42        96        31        69        92        45        46        49        46        15        31        79        111        8        68        50        102        90        10000000        89        100        32        72        108        82        22        20        33        87        75        46        70        41        55        31        97        75         
 68        51        77        75        63        49        23        36        59        45        63        62        26        29        50        81        68        50        25        75        18        88        13        95        60        38        55        41        59        25        41        23        60        16        50        70        74        91        40        22        46        35        81        48        67        8        60        42        8        55        47        40        64        76        83        53        24        81        52        46        15        30        89        10000000        25        89        42        19        22        86        70        94        48        23        77        82        58        35        58        9        18         
 86        51        80        70        44        48        34        56        65        60        47        49        28        53        29        97        55        68        25        69        34        89        14        104        67        22        73        43        55        35        64        28        58        24        34        76        79        93        19        8        64        52        86        61        87        19        74        37        17        59        65        56        84        86        87        41        36        92        76        51        31        14        100        25        10000000        92        66        23        18        91        81        97        32        26        76        105        63        47        70        18        41         
 56        41        12        32        77        44        112        68        30        52        67        59        66        85        81        52        56        60        68        33        106        7        94        27        30        75        57        50        41        114        82        67        34        74        71        20        15        4        83        84        62        61        11        47        66        93        46        56        89        34        59        56        68        26        6        60        113        31        86        43        103        79        32        89        92        10000000        87        106        75        10        29        5        70        69        19        97        30        56        40        94        80         
 41        63        77        88        96        64        54        20        60        35        93        89        52        13        86        54        93        27        54        88        47        89        55        80        59        72        32        56        76        55        5        48        71        46        83        67        72        90        78        62        25        30        76        40        34        50        42        65        50        61        28        32        30        64        81        80        52        65        10        53        46        67        72        42        66        87        10000000        58        56        79        59        91        80        50        84        40        62        39        46        51        26         
 88        66        94        89        67        64        11        55        77        64        69        71        41        45        52        100        77        69        39        88        13        104        13        114        78        44        74        57        73        12        57        39        75        32        56        88        92        108        42        27        65        55        98        67        86        13        79        55        17        72        66        60        82        95        100        62        14        100        68        63        13        36        108        19        23        106        58        10000000        33        104        89        111        55        38        93        98        76        54        77        12        36         
 69        34        63        55        42        31        42        42        47        43        41        40        9        44        30        80        46        53        7        55        38        72        21        86        49        17        57        25        40        43        53        11        42        10        29        58        62        76        22        10        49        36        68        43        71        22        57        21        17        41        49        39        69        68        69        31        43        74        64        33        35        11        82        22        18        75        56        33        10000000        74        63        80        26        8        60        93        45        30        52        22        30         
 46        41        14        39        81        45        109        61        26        46        72        64        64        79        83        42        62        52        67        40        103        16        92        18        25        76        49        48        44        110        74        65        36        72        74        16        12        14        85        84        54        55        5        41        56        91        37        56        87        33        51        50        59        16        9        63        109        21        78        41        100        79        22        86        91        10        79        104        74        10000000        20        13        72        67        25        87        29        51        33        92        75         
 28        35        24        46        81        39        93        42        18        27        72        65        53        60        79        27        64        32        56        47        87        33        79        24        16        69        28        39        44        95        54        53        36        59        71        13        17        33        78        73        35        37        18        23        37        77        17        50        73        26        31        32        39        6        25        61        93        12        58        30        84        70        20        70        81        29        59        89        63        20        10000000        33        68        55        35        68        23        36        14        78        57         
 60        46        17        35        80        49        117        73        35        57        71        63        71        90        85        54        59        65        73        36        111        9        99        27        34        79        61        54        45        119        86        72        39        79        75        25        20        4        88        89        66        65        15        52        69        98        50        60        94        39        63        61        72        29        11        64        118        34        91        48        108        83        33        94        97        5        91        111        80        13        33        10000000        74        74        23        100        35        61        45        99        85         
 84        33        59        42        16        29        65        63        50        58        15        17        28        69        11        91        23        70        26        41        63        65        43        88        52        11        73        31        29        66        76        32        36        35        3        59        61        70        16        28        67        55        67        56        88        46        69        19        42        42        67        56        87        72        65        10        67        80        87        40        60        19        87        48        32        70        80        55        26        72        68        74        10000000        30        51        114        46        46        63        46        56         
 62        29        57        52        46        26        45        35        40        35        43        41        3        39        35        72        46        45        4        52        40        67        25        79        42        22        49        19        37        47        47        3        37        7        32        51        55        71        29        18        41        28        62        35        64        25        49        19        21        35        41        32        62        60        63        32        46        67        58        26        37        18        75        23        26        69        50        38        8        67        55        74        30        10000000        55        86        38        22        45        26        26         
 62        27        12        13        58        29        100        64        24        49        48        40        52        80        62        62        37        60        54        14        95        14        81        43        25        58        59        37        23        102        79        55        18        62        53        22        18        19        66        69        61        55        21        44        71        81        48        40        76        24        58        52        72        35        16        42        101        43        86        33        92        62        46        77        76        19        84        93        60        25        35        23        51        55        10000000        102        22        48        41        81        72         
 41        89        91        110        130        92        93        51        79        57        124        119        87        53        121        47        121        45        89        111        86        101        95        79        77        108        44        85        102        94        41        83        95        83        117        80        85        101        115        100        47        59        86        61        31        90        53        96        89        84        48        58        30        71        92        112        91        66        30        79        86        104        70        82        105        97        40        98        93        87        68        100        114        86        102        10000000        82        68        61        91        65         
 45        13        19        28        58        17        82        42        4        27        50        42        36        58        57        48        42        39        38        28        76        30        64        43        7        48        38        20        22        83        57        37        14        44        48        14        17        33        57        55        39        33        23        23        52        63        30        28        59        4        36        30        53        26        25        39        82        34        64        13        73        50        41        58        63        30        62        76        45        29        23        35        46        38        22        82        10000000        26        22        64        50         
 40        25        44        50        62        26        58        19        26        13        57        51        21        32        55        50        55        24        24        50        52        56        43        60        26        42        28        17        38        59        34        19        33        24        49        36        40        59        50        40        21        9        46        13        43        41        27        28        38        24        21        10        41        41        50        44        58        47        43        15        49        40        55        35        47        56        39        54        30        51        36        61        46        22        48        68        26        10000000        23        42        24         
 23        31        32        49        77        35        80        29        18        13        69        62        43        46        73        29        63        20        46        50        73        43        67        38        16        61        17        32        43        82        41        42        35        47        65        21        26        44        70        63        22        23        30        10        30        64        8        44        61        24        18        18        31        19        35        57        80        23        46        23        71        61        31        58        70        40        46        77        52        33        14        45        63        45        41        61        22        23        10000000        65        44         
 77        54        82        77        60        52        20        45        65        53        61        61        29        38        46        89        68        59        27        77        17        92        4        102        66        35        64        45        62        21        49        27        63        20        48        76        80        96        36        18        54        44        86        55        76        1        68        43        5        60        56        48        73        83        88        52        21        89        61        51        14        27        97        9        18        94        51        12        22        92        78        99        46        26        81        91        64        42        65        10000000        27         
 51        46        68        72        72        46        37        19        50        30        69        66        28        13        60        64        71        33        30        72        30        80        30        81        50        47        38        37        58        38        23        24        55        21        58        60        64        83        52        36        28        21        70        34        49        26        44        43        25        48        30        25        46        63        74        58        36        67        35        38        28        41        75        18        41        80        26        36        30        75        57        85        56        26        72        65        50        24        44        27        10000000         
 DEMAND_SECTION: 
 0   504   0 
 1   2   0 
 2   3   1 
 3   3   4 
 4   1   3 
 5   15   0 
 6   8   1 
 7   7   4 
 8   2   1 
 9   3   8 
 10   16   0 
 11   8   2 
 12   2   1 
 13   7   10 
 14   2   6 
 15   15   0 
 16   14   3 
 17   5   2 
 18   8   11 
 19   2   6 
 20   15   0 
 21   14   3 
 22   1   0 
 23   5   6 
 24   3   10 
 25   6   0 
 26   4   1 
 27   2   0 
 28   8   10 
 29   3   9 
 30   16   0 
 31   6   1 
 32   11   7 
 33   5   7 
 34   2   4 
 35   13   0 
 36   16   3 
 37   11   7 
 38   8   11 
 39   2   5 
 40   2   0 
 41   8   1 
 42   7   4 
 43   3   4 
 44   2   5 
 45   9   0 
 46   3   0 
 47   1   0 
 48   6   9 
 49   2   5 
 50   4   0 
 51   8   2 
 52   9   5 
 53   7   10 
 54   4   12 
 55   2   0 
 56   4   1 
 57   8   5 
 58   1   1 
 59   3   9 
 60   17   0 
 61   10   2 
 62   8   5 
 63   7   10 
 64   2   8 
 65   8   0 
 66   1   0 
 67   11   6 
 68   5   6 
 69   1   0 
 70   13   0 
 71   14   3 
 72   8   5 
 73   6   7 
 74   1   4 
 75   6   0 
 76   4   0 
 77   3   2 
 78   7   9 
 79   3   9 
 80   2   0 
 81   0   296 
