NAME: ..//instances//e_vigo//TSP_PD_vrp200_80_7_0.00.tspBeta0.000000 
COMMENT: TSPSimoultaneousPickUpandDelivery_2008 
TYPE: TSPDC 
DIMENSION: 82 
CAPACITY: 472 
EDGE_WEIGHT_TYPE: EXPLICIT 
EDGE_WEIGHT_FORMAT: FULL_MATRIX 
EDGE_WEIGHT_SECTION: 
10000000        75        20        28        17        75        48        68        14        54        40        24        58        31        19        57        10        37        56        57        69        47        64        66        55        62        41        76        35        14        33        41        57        13        41        45        37        7        49        40        20        20        18        60        57        19        47        38        30        51        40        61        17        19        37        39        19        35        10        22        44        55        46        42        29        8        38        16        37        35        50        20        43        45        5        34        37        67        24        60        31         
 75        10000000        86        54        65        0        30        83        83        37        67        89        62        59        94        19        84        65        93        32        82        36        71        57        87        50        80        9        85        66        51        55        31        65        72        61        81        79        94        75        56        95        85        16        49        87        70        46        105        24        78        15        68        67        99        107        93        108        68        53        58        97        108        34        103        82        86        60        99        49        93        58        42        76        73        90        94        8        62        20        88         
 20        86        10000000        32        37        86        56        87        30        71        33        39        77        51        18        69        23        57        40        73        89        52        84        85        41        81        27        88        19        20        36        39        62        22        31        65        56        24        31        60        30        24        1        72        76        2        67        42        31        63        59        73        36        19        18        49        27        41        29        37        63        72        58        55        31        13        22        29        18        38        32        37        60        64        17        50        53        78        44        68        48         
 28        54        32        10000000        30        54        24        78        40        46        21        49        62        38        44        38        38        47        48        47        79        21        71        66        43        60        31        57        33        14        5        16        30        15        26        51        55        34        45        55        9        47        32        40        55        34        57        10        56        32        56        42        32        13        46        66        47        63        26        17        48        74        72        26        55        32        35        15        46        7        44        23        37        58        23        57        61        46        34        36        54         
 17        65        37        30        10000000        65        42        52        18        39        49        23        41        14        34        46        21        21        70        42        53        45        47        48        68        45        54        64        50        23        35        46        54        20        52        28        25        16        64        26        21        32        35        50        40        36        31        38        41        42        26        50        2        29        54        42        30        42        8        15        26        44        45        32        39        25        53        15        54        36        64        8        28        30        20        28        32        58        7        54        25         
 75        0        86        54        65        10000000        30        83        83        37        67        89        62        59        94        19        84        65        93        32        82        36        71        57        87        50        80        9        85        66        51        55        31        65        72        61        81        79        94        75        56        95        85        16        49        87        70        46        105        24        78        15        68        67        99        107        93        108        68        53        58        97        108        34        103        82        86        60        99        49        93        58        42        76        73        90        94        8        62        20        88         
 48        30        56        24        42        30        10000000        77        58        35        38        65        57        42        66        16        57        50        65        33        77        9        67        58        60        50        51        34        55        37        21        27        13        36        43        50        63        53        65        60        28        67        56        18        47        57        58        16        77        13        62        20        44        37        69        84        67        82        42        27        47        82        87        15        76        54        57        32        69        19        64        34        30        62        45        70        74        22        41        13        67         
 68        83        87        78        52        83        77        10000000        59        46        99        54        21        40        78        69        66        32        122        51        2        85        12        27        120        33        106        76        102        75        82        94        90        72        103        28        33        64        116        28        70        74        86        72        34        86        21        83        78        68        29        70        52        81        105        63        69        71        59        61        31        29        55        62        76        74        105        66        105        83        116        56        47        23        71        44        45        79        46        84        46         
 14        83        30        40        18        83        58        59        10000000        56        54        9        53        29        19        64        7        32        69        60        60        59        58        62        69        60        55        82        48        28        46        55        68        26        55        41        26        7        61        31        32        16        29        67        56        29        40        50        24        59        30        68        16        33        47        26        12        25        16        31        40        42        32        49        22        17        51        26        47        48        62        25        45        36        19        20        23        75        23        70        17         
 54        37        71        46        39        37        35        46        56        10000000        67        59        25        27        72        23        60        30        94        5        46        44        35        23        90        16        78        32        78        52        47        58        47        49        72        24        46        55        91        39        42        71        70        25        13        71        33        46        80        23        42        24        40        56        88        77        68        79        44        34        21        60        75        22        78        62        81        42        88        47        91        35        11        39        54        57        61        33        33        39        56         
 40        67        33        21        49        67        38        99        54        67        10000000        63        83        59        50        54        49        67        27        67        100        30        92        87        22        81        14        72        21        27        20        11        37        30        5        72        73        47        27        74        29        54        33        56        76        34        78        22        63        50        75        58        50        21        37        78        56        72        43        38        69        93        86        46        63        40        21        34        37        20        26        43        58        78        35        73        77        59        54        47        70         
 24        89        39        49        23        89        65        54        9        59        63        10000000        52        32        25        69        15        32        78        63        56        67        55        62        78        61        64        87        57        37        54        64        76        35        65        41        21        16        70        28        40        20        37        73        56        37        38        59        24        65        26        73        21        43        54        19        15        21        24        38        41        34        23        55        22        26        60        35        54        56        71        31        49        32        29        12        14        81        27        77        9         
 58        62        77        62        41        62        57        21        53        25        83        52        10000000        27        72        48        59        21        108        30        20        66        10        10        105        13        91        56        89        62        64        76        70        58        87        12        32        55        103        25        55        69        76        51        13        77        14        65        76        47        27        49        41        67        95        66        65        72        48        45        14        40        61        43        74        65        92        51        95        65        103        42        27        22        60        45        48        58        34        64        45         
 31        59        51        38        14        59        42        40        29        27        59        32        27        10000000        47        41        34        9        82        32        41        48        34        34        79        31        66        57        63        36        42        54        55        32        62        14        22        30        77        18        30        45        49        44        26        50        19        43        53        37        20        44        15        41        68        50        42        52        22        21        12        40        49        28        51        39        66        26        68        43        77        16        18        21        34        31        35        53        7        52        29         
 19        94        18        44        34        94        66        78        19        72        50        25        72        47        10000000        75        13        51        57        76        80        64        77        81        58        78        45        95        37        29        49        54        74        30        49        60        45        17        48        51        38        6        17        79        74        16        60        54        13        70        49        80        32        32        30        31        10        23        28        41        59        59        41        61        13        12        39        34        30        51        49        38        61        55        21        37        38        86        40        79        34         
 57        19        69        38        46        19        16        69        64        23        54        69        48        41        75        10000000        65        47        82        19        68        26        58        46        76        38        67        20        70        49        36        44        25        47        59        44        62        60        81        57        38        76        68        4        36        69        53        32        86        5        60        4        48        50        83        88        74        89        49        34        41        79        89        15        84        64        72        41        83        35        80        39        24        59        55        72        76        12        43        16        69         
 10        84        23        38        21        84        57        66        7        60        49        15        59        34        13        65        10000000        38        63        64        67        58        64        68        63        65        48        84        42        24        43        51        67        23        50        47        33        5        54        38        30        11        22        69        61        22        47        48        21        60        37        70        20        29        39        29        9        25        16        31        46        49        37        50        19        10        44        25        39        45        55        27        49        43        15        27        30        76        28        70        24         
 37        65        57        47        21        65        50        32        32        30        67        32        21        9        51        47        38        10000000        90        35        33        57        27        30        88        29        74        61        71        43        51        63        64        40        71        9        16        35        84        10        38        48        56        51        25        56        11        52        55        44        13        50        21        49        75        48        44        52        28        30        9        32        45        36        53        45        73        34        75        52        85        24        23        12        40        28        31        59        14        60        27         
 56        93        40        48        70        93        65        122        69        94        27        78        108        82        57        82        63        90        10000000        94        123        57        116        113        7        107        17        99        21        47        47        38        62        50        23        96        93        62        10        95        53        63        41        83        102        42        101        50        69        77        95        85        71        41        31        88        66        80        63        63        94        111        98        73        69        52        18        57        31        47        8        67        85        100        52        90        92        86        76        73        87         
 57        32        73        47        42        32        33        51        60        5        67        63        30        32        76        19        64        35        94        10000000        50        42        39        27        90        19        78        27        80        54        47        58        44        51        72        29        51        59        92        45        44        75        73        21        17        74        38        45        84        21        48        20        44        57        90        81        72        84        48        36        27        66        80        21        82        65        82        44        90        47        91        38        15        45        57        62        66        28        37        35        61         
 69        82        89        79        53        82        77        2        60        46        100        56        20        41        80        68        67        33        123        50        10000000        85        11        25        120        32        106        75        103        76        82        94        90        72        103        28        35        65        117        29        71        75        87        71        33        88        22        83        80        68        30        70        53        82        106        65        71        73        60        62        31        31        57        62        78        76        106        67        106        83        117        57        47        25        72        46        47        79        47        84        47         
 47        36        52        21        45        36        9        85        59        44        30        67        66        48        64        26        58        57        57        42        85        10000000        75        67        51        59        44        42        49        35        16        19        9        35        35        57        68        53        58        66        27        67        52        27        55        54        65        11        77        22        68        29        47        33        64        85        67        83        44        30        54        87        90        23        76        52        50        33        64        14        56        37        39        69        44        73        78        29        46        17        71         
 64        71        84        71        47        71        67        12        58        35        92        55        10        34        77        58        64        27        116        39        11        75        10000000        15        113        21        100        64        97        70        74        86        80        66        96        20        34        61        111        27        63        73        83        60        22        83        17        74        79        57        29        59        48        75        102        67        69        74        55        54        23        36        61        52        77        71        100        60        102        74        111        50        37        23        67        47        49        68        41        73        47         
 66        57        85        66        48        57        58        27        62        23        87        62        10        34        81        46        68        30        113        27        25        67        15        10000000        109        8        97        50        96        68        68        80        70        65        92        21        43        64        109        35        60        78        84        48        11        84        25        67        85        47        38        46        49        73        102        76        74        82        56        51        22        50        71        44        83        73        98        58        102        68        109        48        29        32        67        56        58        55        41        62        55         
 55        87        41        43        68        87        60        120        69        90        22        78        105        79        58        76        63        88        7        90        120        51        113        109        10000000        103        14        93        22        45        42        33        56        48        18        93        91        62        14        94        50        64        42        78        98        42        98        45        71        72        94        80        69        39        35        89        67        82        61        59        91        110        99        68        71        52        19        54        35        42        12        64        81        98        50        89        92        80        74        67        86         
 62        50        81        60        45        50        50        33        60        16        81        61        13        31        78        38        65        29        107        19        32        59        21        8        103        10000000        91        43        90        63        62        73        63        60        85        20        43        61        103        36        54        76        80        40        5        80        26        61        84        39        39        39        46        67        98        77        73        81        52        45        20        53        73        37        82        70        93        53        98        62        103        44        23        34        63        56        59        47        38        55        55         
 41        80        27        31        54        80        51        106        55        78        14        64        91        66        45        67        48        74        17        78        106        44        100        97        14        91        10000000        85        9        30        31        25        50        34        9        80        77        47        14        79        37        51        28        69        86        29        84        35        58        62        79        71        54        25        26        76        53        68        47        46        77        95        85        57        58        38        9        40        26        32        13        50        68        83        36        75        78        73        60        60        72         
 76        9        88        57        64        9        34        76        82        32        72        87        56        57        95        20        84        61        99        27        75        42        64        50        93        43        85        10000000        89        69        55        61        38        67        77        56        77        79        99        71        58        95        88        17        43        89        65        50        105        25        74        15        66        70        103        106        93        107        68        54        53        92        106        34        103        83        91        61        103        54        98        58        39        71        74        88        92        13        60        27        86         
 35        85        19        33        50        85        55        102        48        78        21        57        89        63        37        70        42        71        21        80        103        49        97        96        22        90        9        89        10000000        28        34        31        56        31        17        77        72        41        14        75        36        42        20        73        85        21        81        39        49        65        75        75        51        23        17        68        46        60        43        45        75        90        77        59        49        31        3        38        17        36        14        48        68        80        31        69        71        77        57        65        65         
 14        66        20        14        23        66        37        75        28        52        27        37        62        36        29        49        24        43        47        54        76        35        70        68        45        63        30        69        28        10000000        19        27        44        4        29        50        47        21        41        49        10        32        19        52        58        21        54        25        42        43        49        53        24        6        36        53        33        49        17        18        47        66        60        35        41        17        30        10        36        21        41        20        41        53        9        47        50        58        29        50        44         
 33        51        36        5        35        51        21        82        46        47        20        54        64        42        49        36        43        51        47        47        82        16        74        68        42        62        31        55        34        19        10000000        12        25        20        24        54        59        39        45        59        14        51        36        38        57        38        61        6        61        31        60        40        36        17        48        72        52        68        31        21        51        79        77        26        60        37        36        20        48        2        44        28        39        62        28        62        66        43        38        32        59         
 41        55        39        16        46        55        27        94        55        58        11        64        76        54        54        44        51        63        38        58        94        19        86        80        33        73        25        61        31        27        12        10000000        26        29        16        66        71        48        39        71        25        58        39        45        68        41        73        13        68        39        72        47        48        23        47        80        59        76        42        33        63        90        87        37        67        43        32        31        47        11        37        39        50        74        36        73        77        48        50        36        70         
 57        31        62        30        54        31        13        90        68        47        37        76        70        55        74        25        67        64        62        44        90        9        80        70        56        63        50        38        56        44        25        26        10000000        44        41        63        76        63        64        73        37        76        62        25        59        63        72        20        86        24        75        27        56        42        72        95        76        92        53        39        60        95        99        28        85        62        57        42        72        23        63        46        44        76        53        82        86        25        54        11        79         
 13        65        22        15        20        65        36        72        26        49        30        35        58        32        30        47        23        40        50        51        72        35        66        65        48        60        34        67        31        4        20        29        44        10000000        32        46        44        19        45        45        9        32        22        50        55        23        50        25        42        42        46        51        21        9        39        52        32        48        13        15        44        63        58        33        41        18        34        7        39        22        45        17        38        50        9        44        48        57        26        49        41         
 41        72        31        26        52        72        43        103        55        72        5        65        87        62        49        59        50        71        23        72        103        35        96        92        18        85        9        77        17        29        24        16        41        32        10000000        76        76        48        23        77        33        54        32        61        81        33        81        27        62        55        78        63        53        23        34        78        56        72        45        42        73        95        87        51        62        40        17        37        34        25        21        47        63        81        36        75        78        64        57        52        72         
 45        61        65        51        28        61        50        28        41        24        72        41        12        14        60        44        47        9        96        29        28        57        20        21        93        20        80        56        77        50        54        66        63        46        76        10000000        23        43        91        16        43        57        64        47        16        64        9        55        64        42        19        46        29        55        83        56        53        61        36        34        3        36        53        35        62        53        80        40        83        55        91        30        20        16        48        36        39        55        21        58        35         
 37        81        56        55        25        81        63        33        26        46        73        21        32        22        45        62        33        16        93        51        35        68        34        43        91        43        77        77        72        47        59        71        76        44        76        23        10000000        31        86        8        46        41        54        66        40        54        18        62        45        59        5        66        23        53        72        34        36        40        31        39        25        20        30        50        43        42        75        40        72        61        86        32        38        11        41        13        16        74        22        74        13         
 7        79        24        34        16        79        53        64        7        55        47        16        55        30        17        60        5        35        62        59        65        53        61        64        62        61        47        79        41        21        39        48        63        19        48        43        31        10000000        55        36        26        16        23        64        56        23        44        44        26        55        35        65        15        26        41        33        14        30        11        26        42        48        39        45        24        11        44        21        41        41        55        22        44        40        12        27        30        71        23        65        24         
 49        94        31        45        64        94        65        116        61        91        27        70        103        77        48        81        54        84        10        92        117        58        111        109        14        103        14        99        14        41        45        39        64        45        23        91        86        55        10000000        89        49        54        32        83        98        33        95        49        59        76        89        85        64        36        21        79        57        71        56        58        89        103        89        71        60        44        11        51        21        46        2        61        81        93        45        81        84        87        70        74        78         
 40        75        60        55        26        75        60        28        31        39        74        28        25        18        51        57        38        10        95        45        29        66        27        35        94        36        79        71        75        49        59        71        73        45        77        16        8        36        89        10000000        46        47        58        61        33        59        10        61        52        55        3        60        25        55        77        41        42        47        33        38        18        22        37        46        50        47        78        40        77        60        89        31        33        4        44        21        23        69        21        70        21         
 20        56        30        9        21        56        28        70        32        42        29        40        55        30        38        38        30        38        53        44        71        27        63        60        50        54        37        58        36        10        14        25        37        9        33        43        46        26        49        46        10000000        40        30        42        49        31        49        18        50        33        47        43        23        13        46        58        39        55        17        9        41        65        63        25        49        26        39        6        46        16        49        14        32        49        17        48        52        48        25        40        45         
 20        95        24        47        32        95        67        74        16        71        54        20        69        45        6        76        11        48        63        75        75        67        73        78        64        76        51        95        42        32        51        58        76        32        54        57        41        16        54        47        40        10000000        22        80        71        22        56        57        10        71        45        80        31        36        36        25        4        18        27        42        56        53        35        61        9        15        45        35        36        54        55        38        60        51        23        31        33        87        39        80        29         
 18        85        1        32        35        85        56        86        29        70        33        37        76        49        17        68        22        56        41        73        87        52        83        84        42        80        28        88        20        19        36        39        62        22        32        64        54        23        32        58        30        22        10000000        71        74        1        66        42        30        63        58        73        35        19        19        48        25        40        28        36        62        71        57        54        30        12        23        28        19        38        34        36        59        63        16        49        52        77        42        68        46         
 60        16        72        40        50        16        18        72        67        25        56        73        51        44        79        4        69        51        83        21        71        27        60        48        78        40        69        17        73        52        38        45        25        50        61        47        66        64        83        61        42        80        71        10000000        38        72        56        34        89        9        63        2        52        53        86        92        78        92        52        38        44        83        93        18        88        67        74        45        86        37        82        42        28        62        58        75        79        9        47        15        73         
 57        49        76        55        40        49        47        34        56        13        76        56        13        26        74        36        61        25        102        17        33        55        22        11        98        5        86        43        85        58        57        68        59        55        81        16        40        56        98        33        49        71        74        38        10000000        75        24        56        79        36        35        37        41        62        93        73        68        77        47        40        16        51        70        33        77        65        88        48        93        57        98        38        18        31        58        52        56        45        33        52        52         
 19        87        2        34        36        87        57        86        29        71        34        37        77        50        16        69        22        56        42        74        88        54        83        84        42        80        29        89        21        21        38        41        63        23        33        64        54        23        33        59        31        22        1        72        75        10000000        66        43        29        64        58        74        36        21        18        47        25        39        29        37        63        71        56        56        29        12        23        29        18        40        34        37        60        63        17        49        51        79        43        69        46         
 47        70        67        57        31        70        58        21        40        33        78        38        14        19        60        53        47        11        101        38        22        65        17        25        98        26        84        65        81        54        61        73        72        50        81        9        18        44        95        10        49        56        66        56        24        66        10000000        62        62        51        13        55        31        60        85        52        52        57        39        40        12        28        47        44        60        54        84        45        85        62        95        35        29        8        51        31        34        64        25        67        31         
 38        46        42        10        38        46        16        83        50        46        22        59        65        43        54        32        48        52        50        45        83        11        74        67        45        61        35        50        39        25        6        13        20        25        27        55        62        44        49        61        18        57        42        34        56        43        62        10000000        67        27        62        36        40        23        54        76        57        73        35        24        52        82        82        24        66        42        41        24        54        4        48        30        38        64        34        66        70        38        40        27        63         
 30        105        31        56        41        105        77        78        24        80        63        24        76        53        13        86        21        55        69        84        80        77        79        85        71        84        58        105        49        42        61        68        86        42        62        64        45        26        59        52        50        10        30        89        79        29        62        67        10000000        81        50        90        39        45        39        21        12        12        37        52        64        55        33        71        2        25        51        45        39        64        61        47        69        56        33        34        34        97        47        90        32         
 51        24        63        32        42        24        13        68        59        23        50        65        47        37        70        5        60        44        77        21        68        22        57        47        72        39        62        25        65        43        31        39        24        42        55        42        59        55        76        55        33        71        63        9        36        64        51        27        81        10000000        57        10        44        45        78        84        69        84        44        29        39        77        85        10        79        59        67        36        78        30        75        34        22        56        49        68        72        16        39        16        65         
 40        78        59        56        26        78        62        29        30        42        75        26        27        20        49        60        37        13        95        48        30        68        29        38        94        39        79        74        75        49        60        72        75        46        78        19        5        35        89        3        47        45        58        63        35        58        13        62        50        57        10000000        63        25        55        76        39        41        45        33        39        21        20        34        48        48        46        78        41        76        61        89        32        36        6        44        18        21        72        22        72        18         
 61        15        73        42        50        15        20        70        68        24        58        73        49        44        80        4        70        50        85        20        70        29        59        46        80        39        71        15        75        53        40        47        27        51        63        46        66        65        85        60        43        80        73        2        37        74        55        36        90        10        63        10000000        52        54        88        92        79        93        53        39        44        82        93        19        89        68        76        46        88        39        84        43        27        61        59        75        79        9        47        17        73         
 17        68        36        32        2        68        44        52        16        40        50        21        41        15        32        48        20        21        71        44        53        47        48        49        69        46        54        66        51        24        36        48        56        21        53        29        23        15        64        25        23        31        35        52        41        36        31        40        39        44        25        52        10000000        30        54        40        28        40        8        17        27        43        43        34        38        24        53        17        54        38        65        10        30        29        20        26        30        60        8        56        23         
 19        67        19        13        29        67        37        81        33        56        21        43        67        41        32        50        29        49        41        57        82        33        75        73        39        67        25        70        23        6        17        23        42        9        23        55        53        26        36        55        13        36        19        53        62        21        60        23        45        45        55        54        30        10000000        34        58        37        53        22        22        52        72        65        37        45        21        26        15        34        19        36        25        45        59        14        52        56        59        35        49        49         
 37        99        18        46        54        99        69        105        47        88        37        54        95        68        30        83        39        75        31        90        106        64        102        102        35        98        26        103        17        36        48        47        72        39        34        83        72        41        21        77        46        36        19        86        93        18        85        54        39        78        76        88        54        34        10000000        60        40        51        47        54        81        88        71        71        40        30        17        46        0        50        23        55        77        81        35        66        68        91        61        81        63         
 39        107        49        66        42        107        84        63        26        77        78        19        66        50        31        88        29        48        88        81        65        85        67        76        89        77        76        106        68        53        72        80        95        52        78        56        34        33        79        41        58        25        48        92        73        47        52        76        21        84        39        92        40        58        60        10000000        22        10        42        56        57        36        11        74        20        38        70        52        60        74        80        50        67        44        44        21        18        100        45        96        21         
 19        93        27        47        30        93        67        69        12        68        56        15        65        42        10        74        9        44        66        72        71        67        69        74        67        73        53        93        46        33        52        59        76        32        56        53        36        14        57        42        39        4        25        78        68        25        52        57        12        69        41        79        28        37        40        22        10000000        16        25        40        53        49        32        59        10        16        48        34        40        54        59        36        57        47        23        27        28        86        35        79        25         
 35        108        41        63        42        108        82        71        25        79        72        21        72        52        23        89        25        52        80        84        73        83        74        82        82        81        68        107        60        49        68        76        92        48        72        61        40        30        71        47        55        18        40        92        77        39        57        73        12        84        45        93        40        53        51        10        16        10000000        40        55        61        46        21        74        11        32        62        50        51        70        72        50        69        51        40        27        26        100        47        95        26         
 10        68        29        26        8        68        42        59        16        44        43        24        48        22        28        49        16        28        63        48        60        44        55        56        61        52        47        68        43        17        31        42        53        13        45        36        31        11        56        33        17        27        28        52        47        29        39        35        37        44        33        53        8        22        47        42        25        40        10000000        15        34        50        46        34        35        18        46        11        47        33        57        10        33        37        12        31        35        60        15        55        28         
 22        53        37        17        15        53        27        61        31        34        38        38        45        21        41        34        31        30        63        36        62        30        54        51        59        45        46        54        45        18        21        33        39        15        42        34        39        26        58        38        9        42        36        38        40        37        40        24        52        29        39        39        17        22        54        56        40        55        15        10000000        31        58        60        19        50        30        48        8        54        22        58        7        23        41        21        43        47        45        17        40        40         
 44        58        63        48        26        58        47        31        40        21        69        41        14        12        59        41        46        9        94        27        31        54        23        22        91        20        77        53        75        47        51        63        60        44        73        3        25        42        89        18        41        56        62        44        16        63        12        52        64        39        21        44        27        52        81        57        53        61        34        31        10000000        39        54        32        62        51        78        37        81        52        89        27        17        18        46        37        40        53        19        55        36         
 55        97        72        74        44        97        82        29        42        60        93        34        40        40        59        79        49        32        111        66        31        87        36        50        110        53        95        92        90        66        79        90        95        63        95        36        20        48        103        22        65        53        71        83        51        71        28        82        55        77        20        82        43        72        88        36        49        46        50        58        39        10000000        27        68        53        59        93        59        88        81        104        51        55        21        59        22        21        91        42        92        25         
 46        108        58        72        45        108        87        55        32        75        86        23        61        49        41        89        37        45        98        80        57        90        61        71        99        73        85        106        77        60        77        87        99        58        87        53        30        39        89        37        63        35        57        93        70        56        47        82        33        85        34        93        43        65        71        11        32        21        46        60        54        27        10000000        76        31        47        80        57        71        79        90        53        67        39        51        18        14        102        47        99        20         
 42        34        55        26        32        34        15        62        49        22        46        55        43        28        61        15        50        36        73        21        62        23        52        44        68        37        57        34        59        35        26        37        28        33        51        35        50        45        71        46        25        61        54        18        33        56        44        24        71        10        48        19        34        37        71        74        59        74        34        19        32        68        76        10000000        69        49        61        27        71        26        70        24        16        48        40        58        62        26        29        24        56         
 29        103        31        55        39        103        76        76        22        78        63        22        74        51        13        84        19        53        69        82        78        76        77        83        71        82        58        103        49        41        60        67        85        41        62        62        43        24        60        50        49        9        30        88        77        29        60        66        2        79        48        89        38        45        40        20        10        11        35        50        62        53        31        69        10000000        24        52        44        40        63        61        46        67        54        32        32        32        95        45        89        30         
 8        82        13        32        25        82        54        74        17        62        40        26        65        39        12        64        10        45        52        65        76        52        71        73        52        70        38        83        31        17        37        43        62        18        40        53        42        11        44        47        26        15        12        67        65        12        54        42        25        59        46        68        24        21        30        38        16        32        18        30        51        59        47        49        24        10000000        34        22        30        39        45        28        51        51        9        37        40        74        32        66        34         
 38        86        22        35        53        86        57        105        51        81        21        60        92        66        39        72        44        73        18        82        106        50        100        98        19        93        9        91        3        30        36        32        57        34        17        80        75        44        11        78        39        45        23        74        88        23        84        41        51        67        78        76        53        26        17        70        48        62        46        48        78        93        80        61        52        34        10000000        41        17        37        11        51        71        82        34        71        74        79        59        67        68         
 16        60        29        15        15        60        32        66        26        42        34        35        51        26        34        41        25        34        57        44        67        33        60        58        54        53        40        61        38        10        20        31        42        7        37        40        40        21        51        40        6        35        28        45        48        29        45        24        45        36        41        46        17        15        46        52        34        50        11        8        37        59        57        27        44        22        41        10000000        46        22        51        10        31        44        13        42        46        52        20        45        39         
 37        99        18        46        54        99        69        105        47        88        37        54        95        68        30        83        39        75        31        90        106        64        102        102        35        98        26        103        17        36        48        47        72        39        34        83        72        41        21        77        46        36        19        86        93        18        85        54        39        78        76        88        54        34        0        60        40        51        47        54        81        88        71        71        40        30        17        46        10000000        50        23        55        77        81        35        66        68        91        61        81        63         
 35        49        38        7        36        49        19        83        48        47        20        56        65        43        51        35        45        52        47        47        83        14        74        68        42        62        32        54        36        21        2        11        23        22        25        55        61        41        46        60        16        54        38        37        57        40        62        4        64        30        61        39        38        19        50        74        54        70        33        22        52        81        79        26        63        39        37        22        50        10000000        45        29        39        64        30        64        68        41        39        30        61         
 50        93        32        44        64        93        64        116        62        91        26        71        103        77        49        80        55        85        8        91        117        56        111        109        12        103        13        98        14        41        44        37        63        45        21        91        86        55        2        89        49        55        34        82        98        34        95        48        61        75        89        84        65        36        23        80        59        72        57        58        89        104        90        70        61        45        11        51        23        45        10000000        61        81        94        45        82        85        85        70        73        79         
 20        58        37        23        8        58        34        56        25        35        43        31        42        16        38        39        27        24        67        38        57        37        50        48        64        44        50        58        48        20        28        39        46        17        47        30        32        22        61        31        14        38        36        42        38        37        35        30        47        34        32        43        10        25        55        50        36        50        10        7        27        51        53        24        46        28        51        10        55        29        61        10000000        23        35        20        36        40        50        10        46        34         
 43        42        60        37        28        42        30        47        45        11        58        49        27        18        61        24        49        23        85        15        47        39        37        29        81        23        68        39        68        41        39        50        44        38        63        20        38        44        81        33        32        60        59        28        18        60        29        38        69        22        36        27        30        45        77        67        57        69        33        23        17        55        67        16        67        51        71        31        77        39        81        23        10000000        34        43        49        53        36        22        38        47         
 45        76        64        58        30        76        62        23        36        39        78        32        22        21        55        59        43        12        100        45        25        69        23        32        98        34        83        71        80        53        62        74        76        50        81        16        11        40        93        4        49        51        63        62        31        63        8        64        56        56        6        61        29        59        81        44        47        51        37        41        18        21        39        48        54        51        82        44        81        64        94        35        34        10000000        48        24        26        70        25        72        24         
 5        73        17        23        20        73        45        71        19        54        35        29        60        34        21        55        15        40        52        57        72        44        67        67        50        63        36        74        31        9        28        36        53        9        36        48        41        12        45        44        17        23        16        58        58        17        51        34        33        49        44        59        20        14        35        44        23        40        12        21        46        59        51        40        32        9        34        13        35        30        45        20        43        48        10000000        39        42        65        27        57        36         
 34        90        50        57        28        90        70        44        20        57        73        12        45        31        37        72        27        28        90        62        46        73        47        56        89        56        75        88        69        47        62        73        82        44        75        36        13        27        81        21        48        31        49        75        52        49        31        66        34        68        18        75        26        52        66        21        27        27        31        43        37        22        18        58        32        37        71        42        66        64        82        36        49        24        39        10000000        4        84        29        82        3         
 37        94        53        61        32        94        74        45        23        61        77        14        48        35        38        76        30        31        92        66        47        78        49        58        92        59        78        92        71        50        66        77        86        48        78        39        16        30        84        23        52        33        52        79        56        51        34        70        34        72        21        79        30        56        68        18        28        26        35        47        40        21        14        62        32        40        74        46        68        68        85        40        53        26        42        4        10000000        88        33        86        7         
 67        8        78        46        58        8        22        79        75        33        59        81        58        53        86        12        76        59        86        28        79        29        68        55        80        47        73        13        77        58        43        48        25        57        64        55        74        71        87        69        48        87        77        9        45        79        64        38        97        16        72        9        60        59        91        100        86        100        60        45        53        91        102        26        95        74        79        52        91        41        85        50        36        70        65        84        88        10000000        55        13        81         
 24        62        44        34        7        62        41        46        23        33        54        27        34        7        40        43        28        14        76        37        47        46        41        41        74        38        60        60        57        29        38        50        54        26        57        21        22        23        70        21        25        39        42        47        33        43        25        40        47        39        22        47        8        35        61        45        35        47        15        17        19        42        47        29        45        32        59        20        61        39        70        10        22        25        27        29        33        55        10000000        53        26         
 60        20        68        36        54        20        13        84        70        39        47        77        64        52        79        16        70        60        73        35        84        17        73        62        67        55        60        27        65        50        32        36        11        49        52        58        74        65        74        70        40        80        68        15        52        69        67        27        90        16        72        17        56        49        81        96        79        95        55        40        55        92        99        24        89        66        67        45        81        30        73        46        38        72        57        82        86        13        53        10000000        79         
 31        88        48        54        25        88        67        46        17        56        70        9        45        29        34        69        24        27        87        61        47        71        47        55        86        55        72        86        65        44        59        70        79        41        72        35        13        24        78        21        45        29        46        73        52        46        31        63        32        65        18        73        23        49        63        21        25        26        28        40        36        25        20        56        30        34        68        39        63        61        79        34        47        24        36        3        7        81        26        79        10000000         
 DEMAND_SECTION: 
 0   472   0 
 1   13   3 
 2   6   4 
 3   2   1 
 4   3   11 
 5   7   0 
 6   8   1 
 7   11   6 
 8   6   9 
 9   1   0 
 10   8   0 
 11   15   3 
 12   9   6 
 13   6   7 
 14   2   4 
 15   13   0 
 16   14   3 
 17   7   4 
 18   8   11 
 19   2   6 
 20   3   0 
 21   8   1 
 22   12   7 
 23   1   0 
 24   3   10 
 25   1   0 
 26   4   1 
 27   1   0 
 28   7   9 
 29   4   12 
 30   2   0 
 31   12   3 
 32   2   0 
 33   3   3 
 34   4   12 
 35   7   0 
 36   11   2 
 37   1   0 
 38   6   9 
 39   2   7 
 40   1   0 
 41   4   1 
 42   11   6 
 43   6   7 
 44   1   2 
 45   15   0 
 46   11   2 
 47   3   2 
 48   6   7 
 49   4   15 
 50   10   0 
 51   10   2 
 52   3   1 
 53   2   3 
 54   2   6 
 55   14   0 
 56   12   3 
 57   3   2 
 58   4   4 
 59   2   6 
 60   15   0 
 61   8   2 
 62   2   1 
 63   3   4 
 64   1   1 
 65   4   0 
 66   2   0 
 67   2   1 
 68   5   6 
 69   3   9 
 70   1   0 
 71   11   2 
 72   12   7 
 73   1   0 
 74   4   15 
 75   12   0 
 76   5   1 
 77   9   6 
 78   6   8 
 79   1   0 
 80   6   0 
 81   0   287 
