NAME: ..//instances//e_vigo//TSP_PD_vrp200_80_1_0.00.tspBeta0.000000 
COMMENT: TSPSimoultaneousPickUpandDelivery_2008 
TYPE: TSPDC 
DIMENSION: 82 
CAPACITY: 504 
EDGE_WEIGHT_TYPE: EXPLICIT 
EDGE_WEIGHT_FORMAT: FULL_MATRIX 
EDGE_WEIGHT_SECTION: 
10000000        23        87        66        73        69        18        64        34        43        104        81        47        22        99        72        87        90        91        54        80        34        50        42        55        17        13        4        53        71        43        45        4        67        77        68        69        56        20        91        48        57        68        80        63        20        10        49        48        67        39        86        27        41        57        19        98        94        75        29        13        84        78        81        51        75        71        79        90        18        20        53        71        26        63        21        69        31        87        5        67         
 23        10000000        72        49        53        65        36        42        27        20        85        68        52        25        80        72        68        70        74        31        61        41        32        52        33        34        35        27        37        61        46        55        27        44        56        52        46        60        41        73        45        40        45        59        42        37        28        27        50        53        41        67        42        30        46        13        78        74        64        44        34        64        66        62        41        67        50        63        70        31        41        57        60        9        46        6        65        8        66        19        51         
 87        72        10000000        24        91        39        85        42        53        71        24        12        65        97        26        52        18        28        10        68        99        69        87        75        74        103        92        88        35        22        60        74        88        52        37        20        52        60        93        13        48        94        51        88        35        84        96        73        57        20        60        21        81        97        30        69        28        28        18        114        100        98        16        99        38        28        84        9        23        102        107        61        21        78        27        78        38        69        26        85        22         
 66        49        24        10000000        71        39        67        22        34        47        38        24        54        73        35        52        22        28        26        46        79        54        64        63        52        81        72        67        13        23        48        63        67        33        24        5        34        53        74        25        36        71        32        69        13        66        74        50        47        11        46        22        65        73        16        47        35        31        23        92        79        79        24        79        22        33        64        15        26        79        86        53        21        55        3        55        38        46        24        63        4         
 73        53        91        71        10000000        105        89        49        73        34        90        94        102        59        82        115        77        71        86        27        9        93        24        105        22        75        86        78        68        92        96        107        78        39        56        76        39        107        93        83        90        20        40        9        57        90        73        27        98        81        91        74        95        39        79        65        79        75        94        79        78        11        95        9        79        102        7        83        75        70        84        106        91        47        68        53        104        46        70        68        74         
 69        65        39        39        105        10000000        60        59        38        74        63        27        30        86        64        14        53        63        49        78        113        40        92        41        83        87        69        68        37        18        29        40        68        71        63        35        72        22        67        51        21        100        70        105        51        58        79        80        24        29        31        55        52        95        25        55        65        64        21        98        81        114        23        114        25        11        98        38        58        87        87        25        20        73        40        70        1        66        59        69        36         
 18        36        85        67        89        60        10000000        70        33        57        105        76        32        40        102        59        89        94        91        67        97        20        67        25        69        32        10        14        54        66        31        28        14        76        83        68        78        42        8        91        40        74        77        95        67        2        26        63        36        65        28        88        9        59        55        26        101        98        70        42        25        100        73        98        48        67        86        78        92        35        29        39        66        42        64        37        60        44        90        23        67         
 64        42        42        22        49        59        70        10000000        40        31        47        45        67        64        40        72        31        29        39        26        57        63        46        74        32        76        73        66        24        44        61        75        66        11        14        27        12        69        77        37        51        52        11        47        9        70        69        32        61        32        57        28        71        59        34        46        38        34        45        85        75        57        46        58        37        54        42        34        31        72        82        69        43        45        20        47        59        35        26        60        26         
 34        27        53        34        73        38        33        40        10000000        40        72        46        30        48        68        45        56        61        58        46        81        23        56        34        51        51        39        35        21        37        23        36        35        48        51        35        50        35        41        58        18        64        49        76        35        32        44        46        25        33        18        55        32        57        23        17        68        64        41        63        48        84        43        82        17        42        68        45        59        51        54        33        36        35        31        32        38        30        57        33        34         
 43        20        71        47        34        74        57        31        40        10000000        78        70        69        36        72        84        62        61        70        11        42        59        17        71        13        50        55        47        40        65        62        73        47        28        45        52        30        74        62        67        57        26        30        39        36        57        45        7        65        55        57        60        61        27        51        32        69        65        68        57        51        45        69        43        49        73        30        61        62        46        58        73        64        17        44        22        74        13        58        38        50         
 104        85        24        38        90        63        105        47        72        78        10000000        36        88        110        8        76        17        19        15        72        97        90        93        97        78        119        111        106        51        46        83        97        106        53        35        37        52        83        113        14        70        98        51        85        43        104        112        79        80        40        82        19        102        106        51        85        11        15        42        129        117        95        40        97        58        52        83        28        16        116        124        85        45        90        41        91        62        81        21        101        38         
 81        68        12        24        94        27        76        45        46        70        36        10000000        54        92        38        40        28        38        22        69        103        59        87        64        76        97        84        81        31        11        50        64        81        56        43        18        56        48        84        25        38        95        55        93        37        75        90        74        47        15        50        30        72        95        23        63        39        39        7        109        94        103        4        103        30        16        87        13        33        96        100        50        11        75        26        74        26        67        36        79        20         
 47        52        65        54        102        30        32        67        30        69        88        54        10000000        67        87        27        74        82        73        76        111        13        84        11        80        63        42        44        45        43        7        10        44        77        77        52        78        10        38        74        18        92        77        106        61        30        56        75        7        48        11        75        24        81        38        40        87        85        47        74        57        113        50        111        32        41        97        60        79        65        61        7        43        60        53        56        31        57        78        49        52         
 22        25        97        73        59        86        40        64        48        36        110        92        67        10000000        104        91        93        94        99        47        64        54        35        64        45        16        33        26        62        84        63        67        26        64        78        77        66        76        40        97        65        40        66        67        66        42        15        40        67        78        58        91        49        21        69        31        102        98        88        21        20        69        90        65        64        90        58        88        94        11        25        73        83        20        70        18        86        29        90        18        75         
 99        80        26        35        82        64        102        40        68        72        8        38        87        104        10000000        78        13        11        16        65        89        88        85        96        71        114        107        101        48        46        81        96        101        46        28        35        44        83        109        13        69        91        44        77        38        101        107        72        79        39        80        14        99        99        49        80        3        7        43        124        112        87        41        89        56        54        75        27        10        111        119        85        45        84        37        86        63        75        14        96        35         
 72        72        52        52        115        14        59        72        45        84        76        40        27        91        78        10000000        66        77        62        88        124        39        101        37        94        89        69        70        49        32        29        34        70        83        76        48        84        17        66        64        27        109        83        117        64        57        82        90        24        43        33        68        51        102        38        61        79        78        34        100        83        126        36        125        36        24        109        51        72        90        88        20        33        80        53        77        15        75        73        73        49         
 87        68        18        22        77        53        89        31        56        62        17        28        74        93        13        66        10000000        11        9        57        85        75        77        83        63        102        94        89        35        35        69        84        89        39        21        22        38        71        96        6        56        83        37        73        26        88        95        63        67        26        67        3        86        89        36        68        13        11        32        112        100        84        31        85        43        43        70        15        5        99        107        72        33        73        24        74        52        64        9        84        22         
 90        70        28        28        71        63        94        29        61        61        19        38        82        94        11        77        11        10000000        19        54        78        82        74        91        59        104        98        93        40        45        77        92        93        34        16        30        33        80        102        16        64        79        32        66        28        93        97        60        75        35        74        9        93        88        44        72        9        4        43        114        103        76        42        78        50        53        64        26        6        101        110        81        43        74        30        76        62        64        4        87        30         
 91        74        10        26        86        49        91        39        58        70        15        22        73        99        16        62        9        19        10000000        65        94        76        85        83        71        107        97        93        38        31        68        83        93        48        31        23        47        69        99        4        56        92        46        83        34        90        99        71        66        26        67        13        88        97        37        72        17        18        28        117        104        93        26        94        44        38        79        13        14        105        111        70        30        80        29        80        48        70        18        89        25         
 54        31        68        46        27        78        67        26        46        11        72        69        76        47        65        88        57        54        65        10000000        36        68        20        79        6        61        66        58        41        66        69        81        58        20        38        51        22        81        72        63        63        26        22        30        33        67        56        7        72        55        65        54        71        35        53        41        63        58        68        68        62        37        69        36        52        75        21        59        56        57        69        80        65        29        43        33        77        23        52        49        49         
 80        61        99        79        9        113        97        57        81        42        97        103        111        64        89        124        85        78        94        36        10000000        101        30        113        30        81        93        85        76        101        104        115        85        47        64        84        47        116        100        91        98        24        48        12        66        98        79        35        107        89        99        82        102        44        88        73        86        82        102        83        84        5        103        1        88        110        15        91        82        75        90        115        99        55        77        60        113        54        77        75        82         
 34        41        69        54        93        40        20        63        23        59        90        59        13        54        88        39        75        82        76        68        101        10000000        73        12        71        50        30        31        42        48        11        14        31        71        74        53        73        23        27        77        21        81        72        97        58        18        43        66        16        50        9        75        13        69        39        28        88        85        52        61        44        104        55        102        32        48        88        63        79        51        49        20        48        49        52        44        40        47        78        36        53         
 50        32        87        64        24        92        67        46        56        17        93        87        84        35        85        101        77        74        85        20        30        73        10000000        84        15        51        63        54        57        83        77        87        54        40        58        69        42        90        70        83        74        9        42        32        52        68        49        14        81        72        72        74        73        17        68        45        83        79        85        55        54        35        87        31        66        91        24        78        77        46        60        88        81        25        61        30        91        26        72        45        67         
 42        52        75        63        105        41        25        74        34        71        97        64        11        64        96        37        83        91        83        79        113        12        84        10000000        83        57        35        39        52        53        15        3        39        82        84        61        84        20        30        84        27        93        83        109        68        23        51        77        17        57        17        84        16        80        47        40        96        94        57        68        51        116        60        113        40        51        100        70        88        59        54        17        54        60        61        55        42        59        87        45        61         
 55        33        74        52        22        83        69        32        51        13        78        76        80        45        71        94        63        59        71        6        30        71        15        83        10000000        60        67        59        47        72        74        85        59        25        43        57        26        86        74        69        68        20        27        26        39        70        56        6        76        61        69        60        74        31        59        44        68        64        74        66        62        33        75        31        58        81        17        65        62        56        69        84        71        29        49        34        83        25        57        50        55         
 17        34        103        81        75        87        32        76        51        50        119        97        63        16        114        89        102        104        107        61        81        50        51        57        60        10000000        22        19        69        88        60        60        19        77        90        84        79        73        30        106        66        56        79        83        76        34        8        55        65        84        56        100        41        37        74        35        112        108        92        11        7        85        95        81        68        92        74        95        104        5        9        70        88        33        78        29        87        41        100        18        82         
 13        35        92        72        86        69        10        73        39        55        111        84        42        33        107        69        94        98        97        66        93        30        63        35        67        22        10000000        8        59        74        40        38        8        77        87        74        80        52        8        97        48        70        79        93        71        12        18        61        45        72        37        93        19        53        62        28        106        102        78        32        16        97        81        94        55        76        84        84        97        26        19        49        74        39        70        34        69        43        95        18        72         
 4        27        88        67        78        68        14        66        35        47        106        81        44        26        101        70        89        93        93        58        85        31        54        39        59        19        8        10000000        54        71        41        42        0        70        80        69        72        54        16        92        47        62        72        85        65        16        12        53        46        68        37        88        23        45        58        21        100        97        75        30        13        89        78        86        51        74        75        80        92        21        19        51        71        31        65        25        68        35        89        9        68         
 53        37        35        13        68        37        54        24        21        40        51        31        45        62        48        49        35        40        38        41        76        42        57        52        47        69        59        54        10000000        25        38        53        54        34        32        15        36        45        62        38        27        65        34        68        16        53        61        44        38        16        35        34        52        64        12        34        47        43        28        80        66        77        30        77        13        34        61        26        38        67        73        45        24        44        10        44        36        35        36        51        14         
 71        61        22        23        92        18        66        44        37        65        46        11        43        84        46        32        35        45        31        66        101        48        83        53        72        88        74        71        25        10000000        39        53        71        56        46        18        56        38        74        33        27        90        55        92        36        64        81        69        36        12        39        36        61        89        15        54        47        46        4        100        84        101        7        101        20        10        85        19        40        87        90        40        1        68        24        67        17        60        41        70        19         
 43        46        60        48        96        29        31        61        23        62        83        50        7        63        81        29        69        77        68        69        104        11        77        15        74        60        40        41        38        39        10000000        15        41        70        70        47        72        14        38        69        13        86        71        99        55        29        53        69        5        43        5        69        23        76        33        34        82        79        43        71        54        107        46        105        26        38        91        55        73        61        59        11        39        55        47        51        30        51        72        45        47         
 45        55        74        63        107        40        28        75        36        73        97        64        10        67        96        34        84        92        83        81        115        14        87        3        85        60        38        42        53        53        15        10000000        42        84        85        62        86        18        33        84        27        95        85        111        69        26        54        80        17        57        18        84        19        83        48        42        97        94        57        71        54        118        59        116        41        50        102        70        88        63        57        15        53        63        62        58        40        61        87        48        62         
 4        27        88        67        78        68        14        66        35        47        106        81        44        26        101        70        89        93        93        58        85        31        54        39        59        19        8        0        54        71        41        42        10000000        70        80        69        72        54        16        92        47        62        72        85        65        16        12        53        46        68        37        88        23        45        58        21        100        97        75        30        13        89        78        86        51        74        75        80        92        21        19        51        71        31        65        25        68        35        89        9        68         
 67        44        52        33        39        71        76        11        48        28        53        56        77        64        46        83        39        34        48        20        47        71        40        82        25        77        77        70        34        56        70        84        70        10000000        18        39        2        79        83        45        61        45        2        36        20        76        71        27        71        44        66        36        78        54        45        50        43        39        57        85        77        46        57        47        48        66        32        44        37        73        84        79        54        44        31        48        70        36        33        62        37         
 77        56        37        24        56        63        83        14        51        45        35        43        77        78        28        76        21        16        31        38        64        74        58        84        43        90        87        80        32        46        70        85        80        18        10000000        28        17        76        90        27        59        63        16        52        16        83        83        44        70        34        67        18        83        72        40        59        25        21        45        99        89        62        45        64        45        56        49        30        19        87        96        77        44        59        24        61        62        50        14        74        27         
 68        52        20        5        76        35        68        27        35        52        37        18        52        77        35        48        22        30        23        51        84        53        69        61        57        84        74        69        15        18        47        62        69        39        28        10000000        39        50        75        23        34        76        37        75        19        67        77        55        45        6        45        22        65        78        14        49        35        32        18        95        81        85        19        85        21        28        69        11        26        82        88        51        16        59        8        59        34        50        26        66        2         
 69        46        52        34        39        72        78        12        50        30        52        56        78        66        44        84        38        33        47        22        47        73        42        84        26        79        80        72        36        56        72        86        72        2        17        39        10000000        80        85        44        62        46        1        36        21        78        73        29        73        44        68        35        80        56        46        52        42        37        57        87        79        46        57        47        49        66        32        44        36        75        86        80        55        47        32        50        71        38        31        65        37         
 56        60        60        53        107        22        42        69        35        74        83        48        10        76        83        17        71        80        69        81        116        23        90        20        86        73        52        54        45        38        14        18        54        79        76        50        80        10000000        49        70        18        99        79        110        62        40        66        81        9        45        18        72        34        89        37        47        84        82        41        84        67        118        44        117        32        34        102        56        76        74        71        3        39        68        52        64        23        64        76        58        50         
 20        41        93        74        93        67        8        77        41        62        113        84        38        40        109        66        96        102        99        72        100        27        70        30        74        30        8        16        62        74        38        33        16        83        90        75        85        49        10000000        99        47        77        84        100        75        9        25        68        43        73        36        96        15        60        62        32        109        105        78        39        23        104        81        101        55        75        90        86        100        33        25        45        74        46        72        41        67        49        98        25        74         
 91        73        13        25        83        51        91        37        58        67        14        25        74        97        13        64        6        16        4        63        91        77        83        84        69        106        97        92        38        33        69        84        92        45        27        23        44        70        99        10000000        57        89        43        79        31        90        98        69        67        27        68        9        88        95        37        71        15        14        30        116        103        90        28        91        44        41        76        14        10        103        110        72        32        78        28        79        50        68        14        88        24         
 48        45        48        36        90        21        40        51        18        57        70        38        18        65        69        27        56        64        56        63        98        21        74        27        68        66        48        47        27        27        13        27        47        61        59        34        62        18        47        57        10000000        82        61        92        44        38        58        63        11        30        12        57        34        75        20        34        69        67        31        77        60        100        34        99        14        28        84        42        61        66        66        18        27        53        35        50        21        48        60        48        34         
 57        40        94        71        20        100        74        52        64        26        98        95        92        40        91        109        83        79        92        26        24        81        9        93        20        56        70        62        65        90        86        95        62        45        63        76        46        99        77        89        82        10000000        47        29        59        75        55        21        89        80        81        80        81        20        76        53        88        84        93        59        60        29        94        25        74        99        22        85        82        51        66        97        89        33        68        38        100        35        77        52        74         
 68        45        51        32        40        70        77        11        49        30        51        55        77        66        44        83        37        32        46        22        48        72        42        83        27        79        79        72        34        55        71        85        72        2        16        37        1        79        84        43        61        47        10000000        38        19        77        73        29        71        43        66        34        79        57        45        52        41        37        55        87        79        48        56        49        48        65        33        43        35        75        86        79        53        46        30        50        69        38        30        64        36         
 80        59        88        69        9        105        95        47        76        39        85        93        106        67        77        117        73        66        83        30        12        97        32        109        26        83        93        85        68        92        99        111        85        36        52        75        36        110        100        79        92        29        38        10000000        56        96        80        32        101        80        94        70        100        48        80        70        74        70        93        87        86        10        93        12        81        101        9        80        71        78        92        109        90        54        67        59        105        51        66        75        73         
 63        42        35        13        57        51        67        9        35        36        43        37        61        66        38        64        26        28        34        33        66        58        52        68        39        76        71        65        16        36        55        69        65        20        16        19        21        62        75        31        44        59        19        56        10000000        67        70        38        55        24        51        24        67        63        26        44        36        32        37        86        75        66        38        66        30        46        50        26        28        74        82        62        34        47        11        48        50        37        24        59        17         
 20        37        84        66        90        58        2        70        32        57        104        75        30        42        101        57        88        93        90        67        98        18        68        23        70        34        12        16        53        64        29        26        16        76        83        67        78        40        9        90        38        75        77        96        67        10000000        28        64        34        64        26        87        7        60        53        26        100        97        69        44        27        101        72        98        46        66        87        77        91        36        31        37        64        43        64        38        58        45        89        24        66         
 10        28        96        74        73        79        26        69        44        45        112        90        56        15        107        82        95        97        99        56        79        43        49        51        56        8        18        12        61        81        53        54        12        71        83        77        73        66        25        98        58        55        73        80        70        28        10000000        50        58        76        49        93        35        36        67        27        106        101        85        19        6        83        87        80        60        85        71        87        97        8        13        63        80        28        71        23        79        35        94        11        75         
 49        27        73        50        27        80        63        32        46        7        79        74        75        40        72        90        63        60        71        7        35        66        14        77        6        55        61        53        44        69        69        80        53        27        44        55        29        81        68        69        63        21        29        32        38        64        50        10000000        71        59        64        60        68        28        55        38        69        65        72        61        57        38        73        36        54        78        23        64        63        50        63        79        68        23        47        28        79        19        58        44        53         
 48        50        57        47        98        24        36        61        25        65        80        47        7        67        79        24        67        75        66        72        107        16        81        17        76        65        45        46        38        36        5        17        46        71        70        45        73        9        43        67        11        89        71        101        55        34        58        71        10000000        41        9        67        28        80        31        38        80        77        40        76        59        109        43        108        25        34        93        53        71        66        64        8        36        59        46        55        25        54        71        49        45         
 67        53        20        11        81        29        65        32        33        55        40        15        48        78        39        43        26        35        26        55        89        50        72        57        61        84        72        68        16        12        43        57        68        44        34        6        44        45        73        27        30        80        43        80        24        64        76        59        41        10000000        41        27        62        80        11        49        39        37        13        95        80        89        14        89        18        22        74        13        31        82        87        46        11        60        13        60        28        52        31        66        7         
 39        41        60        46        91        31        28        57        18        57        82        50        11        58        80        33        67        74        67        65        99        9        72        17        69        56        37        37        35        39        5        18        37        66        67        45        68        18        36        68        12        81        66        94        51        26        49        64        9        41        10000000        67        22        71        31        29        80        77        43        67        51        102        46        100        24        39        86        54        71        57        56        16        39        50        44        46        32        46        70        40        44         
 86        67        21        22        74        55        88        28        55        60        19        30        75        91        14        68        3        9        13        54        82        75        74        84        60        100        93        88        34        36        69        84        88        36        18        22        35        72        96        9        57        80        34        70        24        87        93        60        67        27        67        10000000        86        87        36        67        13        10        34        111        98        80        33        82        43        45        67        17        4        98        106        73        35        71        24        73        54        62        6        83        23         
 27        42        81        65        95        52        9        71        32        61        102        72        24        49        99        51        86        93        88        71        102        13        73        16        74        41        19        23        52        61        23        19        23        78        83        65        80        34        15        88        34        81        79        100        67        7        35        68        28        62        22        86        10000000        66        51        30        99        96        65        51        35        106        68        103        44        61        91        74        90        44        38        31        61        48        63        43        53        49        89        31        64         
 41        30        97        73        39        95        59        59        57        27        106        95        81        21        99        102        89        88        97        35        44        69        17        80        31        37        53        45        64        89        76        83        45        54        72        78        56        89        60        95        75        20        57        48        63        60        36        28        80        80        71        87        66        10000000        74        42        97        92        92        39        41        49        94        45        70        96        40        88        89        32        46        87        88        22        70        25        95        29        85        36        76         
 57        46        30        16        79        25        55        34        23        51        51        23        38        69        49        38        36        44        37        53        88        39        68        47        59        74        62        58        12        15        33        48        58        45        40        14        46        37        62        37        20        76        45        80        26        53        67        55        31        11        31        36        51        74        10000000        39        49        47        18        85        70        89        21        89        7        23        73        23        41        73        77        37        14        53        16        52        25        45        40        56        14         
 19        13        69        47        65        55        26        46        17        32        85        63        40        31        80        61        68        72        72        41        73        28        45        40        44        35        28        21        34        54        34        42        21        50        59        49        52        47        32        71        34        53        52        70        44        26        27        38        38        49        29        67        30        42        39        10000000        79        75        58        46        32        77        60        74        34        59        61        60        71        34        39        45        53        21        44        17        55        19        68        17        48         
 98        78        28        35        79        65        101        38        68        69        11        39        87        102        3        79        13        9        17        63        86        88        83        96        68        112        106        100        47        47        82        97        100        43        25        35        42        84        109        15        69        88        41        74        36        100        106        69        80        39        80        13        99        97        49        79        10000000        4        45        122        111        84        43        86        56        55        72        28        9        110        118        85        46        82        37        84        64        73        12        95        35         
 94        74        28        31        75        64        98        34        64        65        15        39        85        98        7        78        11        4        18        58        82        85        79        94        64        108        102        97        43        46        79        94        97        39        21        32        37        82        105        14        67        84        37        70        32        97        101        65        77        37        77        10        96        92        47        75        4        10000000        43        118        107        80        42        82        53        54        68        26        6        105        114        83        45        78        33        80        63        69        8        91        33         
 75        64        18        23        94        21        70        45        41        68        42        7        47        88        43        34        32        43        28        68        102        52        85        57        74        92        78        75        28        4        43        57        75        57        45        18        57        41        78        30        31        93        55        93        37        69        85        72        40        13        43        34        65        92        18        58        45        43        10000000        103        88        102        3        102        24        11        87        17        38        91        95        43        4        71        25        70        20        63        39        74        20         
 29        44        114        92        79        98        42        85        63        57        129        109        74        21        124        100        112        114        117        68        83        61        55        68        66        11        32        30        80        100        71        71        30        85        99        95        87        84        39        116        77        59        87        87        86        44        19        61        76        95        67        111        51        39        85        46        122        118        103        10000000        17        88        106        84        79        104        79        106        114        13        14        81        99        41        89        38        98        50        110        30        93         
 13        34        100        79        78        81        25        75        48        51        117        94        57        20        112        83        100        103        104        62        84        44        54        51        62        7        16        13        66        84        54        54        13        77        89        81        79        67        23        103        60        60        79        86        75        27        6        57        59        80        51        98        35        41        70        32        111        107        88        17        10000000        89        91        85        64        88        77        92        102        11        7        64        84        34        76        29        82        41        99        16        80         
 84        64        98        79        11        114        100        57        84        45        95        103        113        69        87        126        84        76        93        37        5        104        35        116        33        85        97        89        77        101        107        118        89        46        62        85        46        118        104        90        100        29        48        10        66        101        83        38        109        89        102        80        106        49        89        77        84        80        102        88        89        10000000        103        4        89        111        16        90        81        80        94        117        100        59        77        64        114        57        76        79        83         
 78        66        16        24        95        23        73        46        43        69        40        4        50        90        41        36        31        42        26        69        103        55        87        60        75        95        81        78        30        7        46        59        78        57        45        19        57        44        81        28        34        94        56        93        38        72        87        73        43        14        46        33        68        94        21        60        43        42        3        106        91        103        10000000        103        27        12        88        16        36        94        97        46        7        74        27        73        22        65        38        77        21         
 81        62        99        79        9        114        98        58        82        43        97        103        111        65        89        125        85        78        94        36        1        102        31        113        31        81        94        86        77        101        105        116        86        47        64        85        47        117        101        91        99        25        49        12        66        98        80        36        108        89        100        82        103        45        89        74        86        82        102        84        85        4        103        10000000        89        111        16        91        82        76        91        115        100        56        77        61        113        55        77        76        83         
 51        41        38        22        79        25        48        37        17        49        58        30        32        64        56        36        43        50        44        52        88        32        66        40        58        68        55        51        13        20        26        41        51        48        45        21        49        32        55        44        14        74        48        81        30        46        60        54        25        18        24        43        44        70        7        34        56        53        24        79        64        89        27        89        10000000        26        73        31        47        67        70        32        20        49        21        47        25        42        46        50        21         
 75        67        28        33        102        11        67        54        42        73        52        16        41        90        54        24        43        53        38        75        110        48        91        51        81        92        76        74        34        10        38        50        74        66        56        28        66        34        75        41        28        99        65        101        46        66        85        78        34        22        39        45        61        96        23        59        55        54        11        104        88        111        12        111        26        10000000        95        28        48        92        94        36        11        75        34        73        10        67        50        74        29         
 71        50        84        64        7        98        86        42        68        30        83        87        97        58        75        109        70        64        79        21        15        88        24        100        17        74        84        75        61        85        91        102        75        32        49        69        32        102        90        76        84        22        33        9        50        87        71        23        93        74        86        67        91        40        73        61        72        68        87        79        77        16        88        16        73        95        10000000        76        68        69        83        101        84        45        61        50        98        42        63        66        67         
 79        63        9        15        83        38        78        34        45        61        28        13        60        88        27        51        15        26        13        59        91        63        78        70        65        95        84        80        26        19        55        70        80        44        30        11        44        56        86        14        42        85        43        80        26        77        87        64        53        13        54        17        74        88        23        60        28        26        17        106        92        90        16        91        31        28        76        10000000        21        93        99        58        18        69        18        69        37        60        22        77        13         
 90        70        23        26        75        58        92        31        59        62        16        33        79        94        10        72        5        6        14        56        82        79        77        88        62        104        97        92        38        40        73        88        92        37        19        26        36        76        100        10        61        82        35        71        28        91        97        63        71        31        71        4        90        89        41        71        9        6        38        114        102        81        36        82        47        48        68        21        10000000        101        109        77        39        74        28        76        57        65        5        86        27         
 18        31        102        79        70        87        35        72        51        46        116        96        65        11        111        90        99        101        105        57        75        51        46        59        56        5        26        21        67        87        61        63        21        73        87        82        75        74        33        103        66        51        75        78        74        36        8        50        66        82        57        98        44        32        73        34        110        105        91        13        11        80        94        76        67        92        69        93        101        10000000        14        71        87        29        76        26        87        37        98        17        80         
 20        41        107        86        84        87        29        82        54        58        124        100        61        25        119        88        107        110        111        69        90        49        60        54        69        9        19        19        73        90        59        57        19        84        96        88        86        71        25        110        66        66        86        92        82        31        13        63        64        87        56        106        38        46        77        39        118        114        95        14        7        94        97        91        70        94        83        99        109        14        10000000        68        90        41        83        36        87        48        106        23        86         
 53        57        61        53        106        25        39        69        33        73        85        50        7        73        85        20        72        81        70        80        115        20        88        17        84        70        49        51        45        40        11        15        51        79        77        51        80        3        45        72        18        97        79        109        62        37        63        79        8        46        16        73        31        87        37        45        85        83        43        81        64        117        46        115        32        36        101        58        77        71        68        10000000        40        66        53        62        26        62        77        55        51         
 71        60        21        21        91        20        66        43        36        64        45        11        43        83        45        33        33        43        30        65        99        48        81        54        71        88        74        71        24        1        39        53        71        54        44        16        55        39        74        32        27        89        53        90        34        64        80        68        36        11        39        35        61        88        14        53        46        45        4        99        84        100        7        100        20        11        84        18        39        87        90        40        10000000        67        23        66        19        59        40        69        18         
 26        9        78        55        47        73        42        45        35        17        90        75        60        20        84        80        73        74        80        29        55        49        25        60        29        33        39        31        44        68        55        63        31        44        59        59        47        68        46        78        53        33        46        54        47        43        28        23        59        60        50        71        48        22        53        21        82        78        71        41        34        59        74        56        49        75        45        69        74        29        41        66        67        10000000        52        5        73        9        70        21        57         
 63        46        27        3        68        40        64        20        31        44        41        26        53        70        37        53        24        30        29        43        77        52        61        61        49        78        70        65        10        24        47        62        65        31        24        8        32        52        72        28        35        68        30        67        11        64        71        47        46        13        44        24        63        70        16        44        37        33        25        89        76        77        27        77        21        34        61        18        28        76        83        53        23        52        10000000        52        39        42        26        60        6         
 21        6        78        55        53        70        37        47        32        22        91        74        56        18        86        77        74        76        80        33        60        44        30        55        34        29        34        25        44        67        51        58        25        48        61        59        50        64        41        79        50        38        50        59        48        38        23        28        55        60        46        73        43        25        52        17        84        80        70        38        29        64        73        61        47        73        50        69        76        26        36        62        66        5        52        10000000        70        12        72        16        57         
 69        65        38        38        104        1        60        59        38        74        62        26        31        86        63        15        52        62        48        77        113        40        91        42        83        87        69        68        36        17        30        40        68        70        62        34        71        23        67        50        21        100        69        105        50        58        79        79        25        28        32        54        53        95        25        55        64        63        20        98        82        114        22        113        25        10        98        37        57        87        87        26        19        73        39        70        10000000        66        59        70        35         
 31        8        69        46        46        66        44        35        30        13        81        67        57        29        75        75        64        64        70        23        54        47        26        59        25        41        43        35        35        60        51        61        35        36        50        50        38        64        49        68        48        35        38        51        37        45        35        19        54        52        46        62        49        29        45        19        73        69        63        50        41        57        65        55        42        67        42        60        65        37        48        62        59        9        42        12        66        10000000        61        26        48         
 87        66        26        24        70        59        90        26        57        58        21        36        78        90        14        73        9        4        18        52        77        78        72        87        57        100        95        89        36        41        72        87        89        33        14        26        31        76        98        14        60        77        30        66        24        89        94        58        71        31        70        6        89        85        40        68        12        8        39        110        99        76        38        77        46        50        63        22        5        98        106        77        40        70        26        72        59        61        10000000        83        26         
 5        19        85        63        68        69        23        60        33        38        101        79        49        18        96        73        84        87        89        49        75        36        45        45        50        18        18        9        51        70        45        48        9        62        74        66        65        58        25        88        48        52        64        75        59        24        11        44        49        66        40        83        31        36        56        17        95        91        74        30        16        79        77        76        50        74        66        77        86        17        23        55        69        21        60        16        70        26        83        10000000        64         
 67        51        22        4        74        36        67        26        34        50        38        20        52        75        35        49        22        30        25        49        82        53        67        61        55        82        72        68        14        19        47        62        68        37        27        2        37        50        74        24        34        74        36        73        17        66        75        53        45        7        44        23        64        76        14        48        35        33        20        93        80        83        21        83        21        29        67        13        27        80        86        51        18        57        6        57        35        48        26        64        10000000         
 DEMAND_SECTION: 
 0   504   0 
 1   10   2 
 2   9   5 
 3   3   4 
 4   3   11 
 5   15   0 
 6   8   1 
 7   1   0 
 8   2   1 
 9   1   0 
 10   16   0 
 11   8   2 
 12   2   1 
 13   7   10 
 14   4   14 
 15   5   0 
 16   14   3 
 17   5   2 
 18   8   11 
 19   2   6 
 20   15   0 
 21   14   3 
 22   7   4 
 23   1   0 
 24   3   10 
 25   16   0 
 26   4   1 
 27   8   4 
 28   4   4 
 29   3   9 
 30   6   0 
 31   6   1 
 32   11   7 
 33   1   1 
 34   4   12 
 35   3   0 
 36   8   1 
 37   5   3 
 38   8   11 
 39   4   13 
 40   12   0 
 41   8   1 
 42   1   0 
 43   7   10 
 44   2   5 
 45   19   0 
 46   11   2 
 47   1   0 
 48   2   3 
 49   2   5 
 50   14   0 
 51   1   0 
 52   3   1 
 53   7   10 
 54   4   12 
 55   2   0 
 56   12   3 
 57   8   5 
 58   5   7 
 59   3   9 
 60   7   0 
 61   2   0 
 62   2   1 
 63   3   4 
 64   2   8 
 65   8   0 
 66   8   2 
 67   5   2 
 68   5   6 
 69   1   0 
 70   13   0 
 71   14   3 
 72   2   1 
 73   6   7 
 74   3   12 
 75   16   0 
 76   12   2 
 77   9   6 
 78   3   3 
 79   3   9 
 80   2   0 
 81   0   296 
