NAME: ..//instances//e_vigo//TSP_PD_vrp200_80_9_0.00.tspBeta0.000000 
COMMENT: TSPSimoultaneousPickUpandDelivery_2008 
TYPE: TSPDC 
DIMENSION: 82 
CAPACITY: 542 
EDGE_WEIGHT_TYPE: EXPLICIT 
EDGE_WEIGHT_FORMAT: FULL_MATRIX 
EDGE_WEIGHT_SECTION: 
10000000        57        56        77        24        40        78        36        40        61        55        77        46        44        4        23        80        27        65        73        67        87        28        67        38        51        39        50        46        90        72        9        66        31        70        38        18        26        60        25        46        68        54        48        25        101        31        68        23        62        18        57        27        44        9        40        45        3        40        60        28        66        85        48        76        88        39        78        73        48        49        64        75        17        59        28        29        72        63        50        70         
 57        10000000        84        21        74        18        68        28        59        89        30        20        35        77        61        47        70        34        81        52        18        50        84        10        71        40        81        53        76        58        71        52        14        66        17        40        72        34        38        82        60        94        79        10        82        64        53        12        75        66        72        60        82        38        66        29        81        59        37        4        47        70        35        29        45        48        26        44        95        86        77        91        50        67        31        37        40        37        46        77        74         
 56        84        10000000        94        75        69        48        80        25        5        100        96        50        12        54        42        49        73        16        57        81        78        67        91        18        48        23        34        11        76        37        63        98        26        100        89        68        72        56        57        25        12        5        74        65        88        33        96        73        30        46        31        71        47        57        85        13        58        89        85        81        30        91        56        68        82        82        71        17        14        8        8        61        71        103        50        80        70        51        7        30         
 77        21        94        10000000        95        37        67        50        70        98        48        4        44        89        80        63        68        56        87        49        13        39        104        12        84        46        95        61        87        47        72        72        24        80        22        61        92        55        40        101        69        103        89        29        102        49        66        17        96        70        90        66        103        47        86        50        94        79        57        18        68        73        17        38        38        35        47        36        102        99        87        101        46        88        47        53        62        31        47        88        77         
 24        74        75        95        10000000        59        102        48        63        79        63        94        69        63        23        47        104        40        86        97        87        110        17        85        58        74        54        74        65        113        95        24        80        51        84        43        7        41        83        24        68        86        74        66        16        124        54        84        3        85        29        80        11        68        18        50        63        21        46        78        31        89        105        71        99        110        51        101        92        64        69        82        98        8        67        51        36        95        86        70        92         
 40        18        69        37        59        10000000        63        19        44        74        33        37        25        61        43        30        65        21        68        50        29        55        67        28        55        31        64        42        60        61        63        35        30        49        33        33        55        19        34        64        46        80        65        8        65        70        36        30        59        56        54        50        65        26        49        23        64        42        30        21        35        60        47        21        47        55        19        47        82        69        61        77        49        51        36        20        29        40        41        62        64         
 78        68        48        67        102        63        10000000        81        40        49        95        70        38        52        79        55        2        79        33        18        56        36        100        70        52        32        65        28        49        30        11        81        81        55        82        94        95        77        30        92        35        51        44        63        98        42        48        76        101        19        78        22        102        38        85        86        57        81        92        68        92        18        56        42        29        41        82        32        46        61        46        51        21        95        97        55        88        36        22        46        18         
 36        28        80        50        48        19        81        10000000        57        85        20        48        43        70        40        38        83        9        83        69        44        74        60        38        64        49        70        58        70        80        80        28        32        57        36        13        46        10        53        60        60        92        76        24        58        88        47        37        49        72        53        66        57        44        44        5        73        37        11        32        19        77        63        40        66        73        3        66        95        77        72        88        69        41        24        31        12        59        60        73        81         
 40        59        25        70        63        44        40        57        10000000        30        75        72        25        19        40        20        42        51        27        42        57        61        60        66        15        25        28        14        17        60        32        45        72        16        75        67        56        49        34        52        5        36        21        49        58        73        10        71        62        22        38        18        63        23        45        62        24        43        66        60        61        26        69        32        50        64        58        52        39        29        18        33        45        57        79        26        59        50        32        18        29         
 61        89        5        98        79        74        49        85        30        10000000        105        100        54        17        59        47        50        78        17        60        85        81        70        96        23        52        26        38        16        78        38        68        102        30        105        94        72        77        59        60        29        7        9        79        69        90        38        100        77        32        50        34        75        51        62        90        17        62        94        90        86        32        95        61        71        85        87        74        13        17        13        3        64        75        108        55        85        74        54        12        31         
 55        30        100        48        63        33        95        20        75        105        10000000        45        58        90        59        58        97        29        101        81        48        81        77        36        84        64        90        75        90        88        96        47        24        77        28        20        63        30        65        79        78        111        96        33        75        94        67        31        65        89        73        83        73        60        63        16        93        57        17        33        32        93        64        53        75        78        18        74        114        97        92        108        79        57        4        50        27        67        73        93        98         
 77        20        96        4        94        37        70        48        72        100        45        10000000        46        91        80        64        72        55        90        53        15        43        104        10        86        49        97        63        89        52        76        72        21        82        18        59        92        54        43        101        72        106        91        29        102        53        68        13        95        73        91        69        102        49        86        48        95        79        55        17        67        77        21        40        42        39        46        40        105        100        89        103        49        87        44        54        60        34        50        90        81         
 46        35        50        44        69        25        38        43        25        54        58        46        10000000        45        48        24        40        41        45        28        32        41        72        42        40        6        52        18        43        44        37        46        50        37        52        56        64        39        13        66        25        60        45        27        70        55        24        47        69        31        53        25        73        3        54        48        49        49        54        36        55        35        44        7        30        43        44        32        60        54        43        57        29        62        61        19        50        27        18        43        39         
 44        77        12        89        63        61        52        70        19        17        90        91        45        10000000        42        32        53        62        25        58        76        78        55        85        6        44        13        31        3        77        42        51        90        14        93        78        56        61        53        45        21        23        11        67        54        90        24        89        61        33        34        32        59        42        45        75        5        46        78        79        70        35        88        51        67        82        72        70        29        10        7        19        62        59        94        41        69        68        50        8        36         
 4        61        54        80        23        43        79        40        40        59        59        80        48        42        10000000        24        81        31        64        75        70        89        25        71        36        52        36        51        44        92        72        13        70        29        74        42        17        30        62        21        45        66        52        51        22        103        31        72        22        62        14        57        25        46        6        44        43        4        44        64        31        66        88        51        78        90        43        80        71        46        48        61        77        17        64        30        33        75        64        49        69         
 23        47        42        63        47        30        55        38        20        47        58        64        24        32        24        10000000        57        31        46        51        51        66        48        56        26        28        34        27        32        68        49        26        59        19        63        47        41        30        38        42        24        54        38        37        46        79        9        59        46        40        29        34        49        22        31        43        35        26        47        50        41        44        67        28        55        67        40        56        57        40        34        50        52        40        62        10        39        52        40        35        48         
 80        70        49        68        104        65        2        83        42        50        97        72        40        53        81        57        10000000        81        34        19        57        37        102        72        54        34        66        30        51        31        12        83        83        57        84        96        97        79        32        93        37        51        45        65        100        42        50        78        103        21        80        24        104        40        86        88        58        83        94        69        94        19        57        44        31        42        84        34        46        62        47        51        23        97        99        57        90        37        24        47        19         
 27        34        73        56        40        21        79        9        51        78        29        55        41        62        31        31        81        10000000        77        69        49        76        51        45        56        47        61        54        63        82        77        19        41        49        45        16        38        2        53        51        54        85        70        28        49        90        41        44        41        68        44        62        48        41        35        13        65        28        16        38        14        72        67        39        67        75        12        68        89        69        65        81        69        33        33        26        9        61        59        66        77         
 65        81        16        87        86        68        33        83        27        17        101        90        45        25        64        46        34        77        10000000        45        75        66        80        87        29        42        38        28        22        62        22        71        95        35        97        93        79        75        47        70        23        18        14        72        78        74        37        92        84        17        58        21        84        43        68        88        28        67        93        82        87        16        82        52        57        70        84        60        15        30        18        18        49        81        104        52        85        60        41        17        15         
 73        52        57        49        97        50        18        69        42        60        81        53        28        58        75        51        19        69        45        10000000        39        21        98        53        56        23        69        28        56        19        26        74        65        57        66        82        91        67        16        91        38        63        53        48        96        31        46        59        97        28        78        27        100        30        81        73        63        76        80        51        83        29        39        29        12        25        69        15        60        68        54        62        4        90        82        47        78        18        11        53        32         
 67        18        81        13        87        29        56        44        57        85        48        15        32        76        70        51        57        49        75        39        10000000        33        95        15        72        34        83        48        75        41        61        63        27        68        28        57        83        47        28        91        57        90        76        21        93        46        54        21        88        58        80        53        94        35        77        46        81        70        54        15        62        61        18        25        29        30        43        28        90        86        75        88        36        79        48        42        56        21        35        75        65         
 87        50        78        39        110        55        36        74        61        81        81        43        41        78        89        66        37        76        66        21        33        10000000        114        47        76        38        89        47        76        9        46        86        60        76        60        87        105        74        28        107        57        84        73        51        111        14        63        53        110        49        94        47        114        44        96        77        83        90        84        48        90        50        23        39        11        5        73        9        81        88        74        83        17        102        81        59        85        15        28        74        53         
 28        84        67        104        17        67        100        60        60        70        77        104        72        55        25        48        102        51        80        98        95        114        10000000        95        51        76        44        72        57        116        92        33        92        46        96        58        14        52        86        10        65        76        66        75        2        127        53        95        14        82        22        78        6        70        18        63        53        25        60        88        46        85        112        75        103        115        63        104        83        54        62        72        100        20        81        55        50        99        88        63        88         
 67        10        91        12        85        28        70        38        66        96        36        10        42        85        71        56        72        45        87        53        15        47        95        10000000        79        45        90        59        84        56        74        62        13        75        13        49        82        44        41        92        67        101        86        20        92        59        61        6        86        71        82        65        92        44        77        38        89        70        45        7        57        74        28        35        44        44        36        42        102        94        84        98        51        77        35        46        50        36        49        85        78         
 38        71        18        84        58        55        52        64        15        23        84        86        40        6        36        26        54        56        29        56        72        76        51        79        10000000        40        13        29        7        75        43        45        84        8        87        72        51        55        50        42        19        30        16        61        50        88        18        83        56        33        30        31        55        37        40        69        10        40        72        73        64        36        84        46        65        79        66        67        35        15        11        25        60        53        87        35        63        65        47        12        38         
 51        40        48        46        74        31        32        49        25        52        64        49        6        44        52        28        34        47        42        23        34        38        76        45        40        10000000        53        14        42        40        32        51        54        39        56        62        69        45        10        70        23        57        43        32        74        51        25        50        74        26        57        21        77        7        59        54        49        54        60        40        61        30        44        11        27        40        50        29        57        54        42        54        24        67        66        24        56        25        12        42        34         
 39        81        23        95        54        64        65        70        28        26        90        97        52        13        36        34        66        61        38        69        83        89        44        90        13        53        10000000        42        16        88        54        47        93        15        97        76        47        60        62        34        32        32        24        71        43        101        29        93        52        45        25        44        49        49        37        74        9        39        76        83        66        47        96        58        78        92        72        80        39        10        19        28        73        51        94        44        66        78        60        20        49         
 50        53        34        61        74        42        28        58        14        38        75        63        18        31        51        27        30        54        28        28        48        47        72        59        29        14        42        10000000        29        47        23        53        67        29        70        70        67        52        22        65        10        43        29        45        70        59        20        64        72        15        51        8        74        16        56        63        36        53        68        54        66        19        57        24        36        50        59        39        42        41        28        40        31        67        78        28        63        37        19        28        23         
 46        76        11        87        65        60        49        70        17        16        90        89        43        3        44        32        51        63        22        56        75        76        57        84        7        42        16        29        10000000        74        39        53        89        15        92        78        58        61        51        48        19        22        9        66        56        87        24        88        63        30        36        29        62        40        47        75        8        47        79        77        71        32        86        49        65        79        72        68        28        12        4        18        59        60        93        41        70        66        48        5        33         
 90        58        76        47        113        61        30        80        60        78        88        52        44        77        92        68        31        82        62        19        41        9        116        56        75        40        88        47        74        10000000        41        90        68        76        68        94        108        80        31        109        56        80        71        57        114        13        64        62        113        46        96        45        117        46        98        83        82        93        91        56        96        46        32        43        14        14        80        14        76        86        72        80        16        106        89        63        90        21        29        72        48         
 72        71        37        72        95        63        11        80        32        38        96        76        37        42        72        49        12        77        22        26        61        46        92        74        43        32        54        23        39        41        10000000        76        85        47        86        92        89        75        33        83        27        39        33        64        90        53        41        80        94        10        70        15        95        36        77        85        46        74        91        71        89        7        64        42        38        50        81        41        35        50        36        39        30        89        98        51        85        43        25        35        7         
 9        52        63        72        24        35        81        28        45        68        47        72        46        51        13        26        83        19        71        74        63        86        33        62        45        51        47        53        53        90        76        10000000        59        38        63        30        20        19        59        32        50        75        61        43        31        100        35        62        24        66        26        61        30        45        16        32        53        9        31        55        19        70        81        47        76        86        31        77        80        56        56        71        75        16        51        27        21        71        64        57        74         
 66        14        98        24        80        30        81        32        72        102        24        21        50        90        70        59        83        41        95        65        27        60        92        13        84        54        93        67        89        68        85        59        10000000        79        4        40        78        40        52        91        74        108        93        23        90        72        66        7        81        80        82        74        89        52        75        31        94        68        37        14        50        84        41        43        57        57        29        55        109        99        90        105        63        73        23        49        44        49        60        91        88         
 31        66        26        80        51        49        55        57        16        30        77        82        37        14        29        19        57        49        35        57        68        76        46        75        8        39        15        29        15        76        47        38        79        10000000        82        64        44        47        48        37        21        37        23        56        44        88        14        78        49        37        24        33        49        34        33        62        16        32        65        68        56        40        82        43        64        78        59        67        42        21        18        33        60        46        80        29        55        64        47        19        43         
 70        17        100        22        84        33        82        36        75        105        28        18        52        93        74        63        84        45        97        66        28        60        96        13        87        56        97        70        92        68        86        63        4        82        10000000        44        83        44        53        95        76        111        96        26        94        71        69        6        86        82        86        76        93        54        79        35        97        72        41        16        54        86        39        45        57        56        34        55        112        102        93        108        63        77        26        53        48        49        61        94        90         
 38        40        89        61        43        33        94        13        67        94        20        59        56        78        42        47        96        16        93        82        57        87        58        49        72        62        76        70        78        94        92        30        40        64        44        10000000        44        18        66        60        71        101        86        37        56        101        57        46        45        84        56        78        53        56        45        11        80        39        4        43        12        88        75        53        80        86        14        79        105        84        81        97        82        37        24        42        9        72        73        82        93         
 18        72        68        92        7        55        95        46        56        72        63        92        64        56        17        41        97        38        79        91        83        105        14        82        51        69        47        67        58        108        89        20        78        44        83        44        10000000        38        77        18        62        79        67        63        12        119        48        82        5        79        23        74        10        62        11        49        56        15        46        75        31        82        101        66        94        105        49        95        85        57        62        75        93        6        67        45        36        90        80        63        86         
 26        34        72        55        41        19        77        10        49        77        30        54        39        61        30        30        79        2        75        67        47        74        52        44        55        45        60        52        61        80        75        19        40        47        44        18        38        10000000        51        51        53        83        68        26        49        89        39        44        42        66        44        60        49        39        35        14        64        28        17        37        16        70        66        37        65        74        13        66        87        68        64        79        67        33        34        24        11        59        57        65        75         
 60        38        56        40        83        34        30        53        34        59        65        43        13        53        62        38        32        53        47        16        28        28        86        41        50        10        62        22        51        31        33        59        52        48        53        66        77        51        10000000        79        32        64        51        33        84        42        35        47        82        31        66        26        86        16        68        57        58        62        64        38        67        34        35        13        17        30        53        19        63        63        50        62        16        75        67        32        62        15        8        50        38         
 25        82        57        101        24        64        92        60        52        60        79        101        66        45        21        42        93        51        70        91        91        107        10        92        42        70        34        65        48        109        83        32        91        37        95        60        18        51        79        10000000        57        66        57        73        9        121        45        94        21        74        13        70        16        64        16        64        43        23        62        85        48        77        108        70        96        109        63        98        73        44        52        62        94        24        83        50        52        93        81        53        79         
 46        60        25        69        68        46        35        60        5        29        78        72        25        21        45        24        37        54        23        38        57        57        65        67        19        23        32        10        19        56        27        50        74        21        76        71        62        53        32        57        10000000        35        20        50        64        69        15        71        67        17        44        13        68        22        51        65        26        48        70        61        65        21        67        32        46        60        61        49        36        31        18        32        41        62        81        29        63        47        29        18        24         
 68        94        12        103        86        80        51        92        36        7        111        106        60        23        66        54        51        85        18        63        90        84        76        101        30        57        32        43        22        80        39        75        108        37        111        101        79        83        64        66        35        10000000        16        85        75        92        45        106        83        35        56        38        81        57        68        97        23        69        101        96        93        34        99        66        74        88        94        78        8        22        19        4        67        82        115        62        92        78        58        19        32         
 54        79        5        89        74        65        44        76        21        9        96        91        45        11        52        38        45        70        14        53        76        73        66        86        16        43        24        29        9        71        33        61        93        23        96        86        67        68        51        57        20        16        10000000        70        65        83        29        91        72        25        45        26        71        42        56        81        14        56        85        81        78        26        86        51        63        77        78        66        19        17        5        12        56        69        99        46        77        65        46        4        26         
 48        10        74        29        66        8        63        24        49        79        33        29        27        67        51        37        65        28        72        48        21        51        75        20        61        32        71        45        66        57        64        43        23        56        26        37        63        26        33        73        50        85        70        10000000        73        65        43        23        67        58        62        52        73        29        57        26        71        50        34        13        41        62        40        21        43        49        22        43        86        76        67        82        47        59        34        27        35        36        41        67        67         
 25        82        65        102        16        65        98        58        58        69        75        102        70        54        22        46        100        49        78        96        93        111        2        92        50        74        43        70        56        114        90        31        90        44        94        56        12        49        84        9        64        75        65        73        10000000        125        51        93        13        80        20        76        6        68        16        61        52        23        59        85        44        84        110        73        101        113        61        102        82        53        60        71        98        19        80        52        48        97        86        61        87         
 101        64        88        49        124        70        42        88        73        90        94        53        55        90        103        79        42        90        74        31        46        14        127        59        88        51        101        59        87        13        53        100        72        88        71        101        119        89        42        121        69        92        83        65        125        10000000        76        65        124        58        108        58        128        57        110        91        95        104        98        61        105        59        32        53        25        16        87        23        88        99        85        92        28        116        94        74        99        30        41        84        60         
 31        53        33        66        54        36        48        47        10        38        67        68        24        24        31        9        50        41        37        46        54        63        53        61        18        25        29        20        24        64        41        35        66        14        69        57        48        39        35        45        15        45        29        43        51        76        10000000        65        53        32        32        26        55        21        37        52        28        33        56        55        51        35        68        29        52        65        49        54        48        33        25        41        48        48        70        17        48        50        36        26        39         
 68        12        96        17        84        30        76        37        71        100        31        13        47        89        72        59        78        44        92        59        21        53        95        6        83        50        93        64        88        62        80        62        7        78        6        46        82        44        47        94        71        106        91        23        93        65        65        10000000        85        76        84        71        92        49        78        36        93        71        43        10        55        80        34        40        51        50        34        49        107        98        89        103        57        77        30        49        49        42        55        89        84         
 23        75        73        96        3        59        101        49        62        77        65        95        69        61        22        46        103        41        84        97        88        110        14        86        56        74        52        72        63        113        94        24        81        49        86        45        5        42        82        21        67        83        72        67        13        124        53        85        10000000        84        27        79        8        67        16        51        60        20        48        79        33        88        106        71        99        110        52        100        90        62        67        79        98        9        69        50        38        95        86        68        91         
 62        66        30        70        85        56        19        72        22        32        89        73        31        33        62        40        21        68        17        28        58        49        82        71        33        26        45        15        30        46        10        66        80        37        82        84        79        66        31        74        17        35        25        58        80        58        32        76        84        10000000        60        6        85        30        68        77        38        65        83        66        80        4        64        37        39        53        73        42        33        42        27        34        32        79        92        43        77        43        24        27        9         
 18        72        46        90        29        54        78        53        38        50        73        91        53        34        14        29        80        44        58        78        80        94        22        82        30        57        25        51        36        96        70        26        82        24        86        56        23        44        66        13        44        56        45        62        20        108        32        84        27        60        10000000        56        25        51        13        58        33        17        58        75        45        64        96        57        83        96        56        85        63        35        40        52        80        26        77        38        47        81        67        41        66         
 57        60        31        66        80        50        22        66        18        34        83        69        25        32        57        34        24        62        21        27        53        47        78        65        31        21        44        8        29        45        15        61        74        33        76        78        74        60        26        70        13        38        26        52        76        58        26        71        79        6        56        10000000        80        23        63        71        37        59        77        61        74        10        61        31        37        51        67        40        37        41        27        36        30        74        85        36        71        40        20        27        15         
 27        82        71        103        11        65        102        57        63        75        73        102        73        59        25        49        104        48        84        100        94        114        6        92        55        77        49        74        62        117        95        30        89        49        93        53        10        49        86        16        68        81        71        73        6        128        55        92        8        85        25        80        10000000        71        18        59        58        24        56        85        41        88        111        75        103        115        60        105        88        59        66        77        101        16        77        55        46        99        89        67        91         
 44        38        47        47        68        26        38        44        23        51        60        49        3        42        46        22        40        41        43        30        35        44        70        44        37        7        49        16        40        46        36        45        52        34        54        56        62        39        16        64        22        57        42        29        68        57        21        49        67        30        51        23        71        10000000        52        48        46        47        55        39        54        34        47        9        33        45        44        34        58        51        40        54        31        60        62        17        50        30        19        40        38         
 9        66        57        86        18        49        85        44        45        62        63        86        54        45        6        31        86        35        68        81        77        96        18        77        40        59        37        56        47        98        77        16        75        33        79        45        11        35        68        16        51        68        56        57        16        110        37        78        16        68        13        63        18        52        10000000        48        45        7        47        70        33        71        94        57        85        97        47        86        75        47        51        64        83        14        67        36        36        81        70        52        74         
 40        29        85        50        50        23        86        5        62        90        16        48        48        75        44        43        88        13        88        73        46        77        63        38        69        54        74        63        75        83        85        32        31        62        35        11        49        14        57        64        65        97        81        26        61        91        52        36        51        77        58        71        59        48        48        10000000        78        41        8        33        19        81        64        44        69        75        4        69        100        82        77        93        72        43        20        36        13        62        64        78        86         
 45        81        13        94        63        64        57        73        24        17        93        95        49        5        43        35        58        65        28        63        81        83        53        89        10        49        9        36        8        82        46        53        94        16        97        80        56        64        58        43        26        23        14        71        52        95        28        93        60        38        33        37        58        46        45        78        10000000        46        81        83        72        39        93        56        73        87        75        75        30        5        11        19        67        59        97        45        71        73        55        11        40         
 3        59        58        79        21        42        81        37        43        62        57        79        49        46        4        26        83        28        67        76        70        90        25        70        40        54        39        53        47        93        74        9        68        32        72        39        15        28        62        23        48        69        56        50        23        104        33        71        20        65        17        59        24        47        7        41        46        10000000        41        63        28        68        87        51        79        91        40        81        75        49        51        65        78        14        61        30        30        75        65        52        72         
 40        37        89        57        46        30        92        11        66        94        17        55        54        78        44        47        94        16        93        80        54        84        60        45        72        60        76        68        79        91        91        31        37        65        41        4        46        17        64        62        70        101        85        34        59        98        56        43        48        83        58        77        56        55        47        8        81        41        10000000        40        15        87        72        51        77        83        11        77        104        85        81        97        80        40        21        41        11        70        71        82        91         
 60        4        85        18        78        21        68        32        60        90        33        17        36        79        64        50        69        38        82        51        15        48        88        7        73        40        83        54        77        56        71        55        14        68        16        43        75        37        38        85        61        96        81        13        85        61        55        10        79        66        75        61        85        39        70        33        83        63        40        10000000        50        70        32        30        44        46        30        42        96        88        78        93        49        70        33        39        44        35        46        79        74         
 28        47        81        68        31        35        92        19        61        86        32        67        55        70        31        41        94        14        87        83        62        90        46        57        64        61        66        66        71        96        89        19        50        56        54        12        31        16        67        48        65        93        78        41        44        105        51        55        33        80        45        74        41        54        33        19        72        28        15        50        10000000        84        81        53        82        90        21        82        98        75        74        89        83        25        36        38        6        75        73        75        89         
 66        70        30        73        89        60        18        77        26        32        93        77        35        35        66        44        19        72        16        29        61        50        85        74        36        30        47        19        32        46        7        70        84        40        86        88        82        70        34        77        21        34        26        62        84        59        35        80        88        4        64        10        88        34        71        81        39        68        87        70        84        10000000        66        41        41        54        77        44        31        43        29        33        33        83        96        47        81        45        26        28        4         
 85        35        91        17        105        47        56        63        69        95        64        21        44        88        88        67        57        67        82        39        18        23        112        28        84        44        96        57        86        32        64        81        41        82        39        75        101        66        35        108        67        99        86        40        110        32        68        34        106        64        96        61        111        47        94        64        93        87        72        32        81        66        10000000        39        27        19        61        24        97        98        85        97        35        97        64        58        74        21        41        85        70         
 48        29        56        38        71        21        42        40        32        61        53        40        7        51        51        28        44        39        52        29        25        39        75        35        46        11        58        24        49        43        42        47        43        43        45        53        66        37        13        70        32        66        51        21        73        53        29        40        71        37        57        31        75        9        57        44        56        51        51        30        53        41        39        10000000        29        40        40        30        67        61        50        64        29        63        56        21        48        24        20        50        45         
 76        45        68        38        99        47        29        66        50        71        75        42        30        67        78        55        31        67        57        12        29        11        103        44        65        27        78        36        65        14        38        76        57        64        57        80        94        65        17        96        46        74        63        43        101        25        52        51        99        39        83        37        103        33        85        69        73        79        77        44        82        41        27        29        10000000        14        66        3        72        77        64        73        8        92        76        49        76        8        17        63        44         
 88        48        82        35        110        55        41        73        64        85        78        39        43        82        90        67        42        75        70        25        30        5        115        44        79        40        92        50        79        14        50        86        57        78        56        86        105        74        30        109        60        88        77        49        113        16        65        50        110        53        96        51        115        45        97        75        87        91        83        46        90        54        19        40        14        10000000        72        11        85        91        78        87        21        103        79        60        84        16        32        78        57         
 39        26        82        47        51        19        82        3        58        87        18        46        44        72        43        40        84        12        84        69        43        73        63        36        66        50        72        59        72        80        81        31        29        59        34        14        49        13        53        63        61        94        78        22        61        87        49        34        52        73        56        67        60        44        47        4        75        40        11        30        21        77        61        40        66        72        10000000        65        97        80        74        90        68        44        22        32        15        58        60        75        82         
 78        44        71        36        101        47        32        66        52        74        74        40        32        70        80        56        34        68        60        15        28        9        104        42        67        29        80        39        68        14        41        77        55        67        55        79        95        66        19        98        49        78        66        43        102        23        54        49        100        42        85        40        105        34        86        69        75        81        77        42        82        44        24        30        3        11        65        10000000        75        80        66        76        11        93        75        50        76        7        20        66        47         
 73        95        17        102        92        82        46        95        39        13        114        105        60        29        71        57        46        89        15        60        90        81        83        102        35        57        39        42        28        76        35        80        109        42        112        105        85        87        63        73        36        8        19        86        82        88        48        107        90        33        63        37        88        58        75        100        30        75        104        96        98        31        97        67        72        85        97        75        10000000        30        24        11        64        88        117        64        96        76        56        23        28         
 48        86        14        99        64        69        61        77        29        17        97        100        54        10        46        40        62        69        30        68        86        88        54        94        15        54        10        41        12        86        50        56        99        21        102        84        57        68        63        44        31        22        17        76        53        99        33        98        62        42        35        41        59        51        47        82        5        49        85        88        75        43        98        61        77        91        80        80        30        10000000        14        18        71        61        101        50        75        78        60        15        43         
 49        77        8        87        69        61        46        72        18        13        92        89        43        7        48        34        47        65        18        54        75        74        62        84        11        42        19        28        4        72        36        56        90        18        93        81        62        64        50        52        18        19        5        67        60        85        25        89        67        27        40        27        66        40        51        77        11        51        81        78        74        29        85        50        64        78        74        66        24        14        10000000        16        57        64        95        42        73        65        46        1        30         
 64        91        8        101        82        77        51        88        33        3        108        103        57        19        61        50        51        81        18        62        88        83        72        98        25        54        28        40        18        80        39        71        105        33        108        97        75        79        62        62        32        4        12        82        71        92        41        103        79        34        52        36        77        54        64        93        19        65        97        93        89        33        97        64        73        87        90        76        11        18        16        10000000        66        78        111        58        88        76        57        15        32         
 75        50        61        46        98        49        21        69        45        64        79        49        29        62        77        52        23        69        49        4        36        17        100        51        60        24        73        31        59        16        30        75        63        60        63        82        93        67        16        94        41        67        56        47        98        28        48        57        98        32        80        30        101        31        83        72        67        78        80        49        83        33        35        29        8        21        68        11        64        71        57        66        10000000        91        81        48        78        15        13        57        36         
 17        67        71        88        8        51        95        41        57        75        57        87        62        59        17        40        97        33        81        90        79        102        20        77        53        67        51        67        60        106        89        16        73        46        77        37        6        33        75        24        62        82        69        59        19        116        48        77        9        79        26        74        16        60        14        43        59        14        40        70        25        83        97        63        92        103        44        93        88        61        64        78        91        10000000        61        43        30        87        79        65        86         
 59        31        103        47        67        36        97        24        79        108        4        44        61        94        64        62        99        33        104        82        48        81        81        35        87        66        94        78        93        89        98        51        23        80        26        24        67        34        67        83        81        115        99        34        80        94        70        30        69        92        77        85        77        62        67        20        97        61        21        33        36        96        64        56        76        79        22        75        117        101        95        111        81        61        10000000        53        31        68        75        96        100         
 28        37        50        53        51        20        55        31        26        55        50        54        19        41        30        10        57        26        52        47        42        59        55        46        35        24        44        28        41        63        51        27        49        29        53        42        45        24        32        50        29        62        46        27        52        74        17        49        50        43        38        36        55        17        36        36        45        30        41        39        38        47        58        21        49        60        32        50        64        50        42        58        48        43        53        10000000        34        45        36        43        51         
 29        40        80        62        36        29        88        12        59        85        27        60        50        69        33        39        90        9        85        78        56        85        50        50        63        56        66        63        70        90        85        21        44        55        48        9        36        11        62        52        63        92        77        35        48        99        48        49        38        77        47        71        46        50        36        13        71        30        11        44        6        81        74        48        76        84        15        76        96        75        73        88        78        30        31        34        10000000        69        68        73        85         
 72        37        70        31        95        40        36        59        50        74        67        34        27        68        75        52        37        61        60        18        21        15        99        36        65        25        78        37        66        21        43        71        49        64        49        72        90        59        15        93        47        78        65        36        97        30        50        42        95        43        81        40        99        30        81        62        73        75        70        35        75        45        21        24        8        16        58        7        76        78        65        76        15        87        68        45        69        10000000        19        65        49         
 63        46        51        47        86        41        22        60        32        54        73        50        18        50        64        40        24        59        41        11        35        28        88        49        47        12        60        19        48        29        25        64        60        47        61        73        80        57        8        81        29        58        46        41        86        41        36        55        86        24        67        20        89        19        70        64        55        65        71        46        73        26        41        20        17        32        60        20        56        60        46        57        13        79        75        36        68        19        10000000        46        30         
 50        77        7        88        70        62        46        73        18        12        93        90        43        8        49        35        47        66        17        53        75        74        63        85        12        42        20        28        5        72        35        57        91        19        94        82        63        65        50        53        18        19        4        67        61        84        26        89        68        27        41        27        67        40        52        78        11        52        82        79        75        28        85        50        63        78        75        66        23        15        1        15        57        65        96        43        73        65        46        10000000        29         
 70        74        30        77        92        64        18        81        29        31        98        81        39        36        69        48        19        77        15        32        65        53        88        78        38        34        49        23        33        48        7        74        88        43        90        93        86        75        38        79        24        32        26        67        87        60        39        84        91        9        66        15        91        38        74        86        40        72        91        74        89        4        70        45        44        57        82        47        28        43        30        32        36        86        100        51        85        49        30        29        10000000         
 DEMAND_SECTION: 
 0   542   0 
 1   4   0 
 2   2   0 
 3   6   9 
 4   3   11 
 5   11   0 
 6   8   1 
 7   6   3 
 8   8   11 
 9   1   0 
 10   12   0 
 11   12   2 
 12   12   7 
 13   2   3 
 14   1   1 
 15   9   0 
 16   14   3 
 17   12   7 
 18   8   11 
 19   2   6 
 20   19   0 
 21   11   2 
 22   9   6 
 23   1   0 
 24   3   10 
 25   8   0 
 26   4   1 
 27   10   6 
 28   5   7 
 29   1   3 
 30   14   0 
 31   9   2 
 32   6   4 
 33   6   8 
 34   4   12 
 35   15   0 
 36   1   0 
 37   3   1 
 38   3   4 
 39   3   10 
 40   16   0 
 41   14   3 
 42   6   3 
 43   2   3 
 44   3   12 
 45   7   0 
 46   11   2 
 47   8   5 
 48   4   5 
 49   1   2 
 50   2   0 
 51   13   3 
 52   3   1 
 53   1   0 
 54   3   9 
 55   18   0 
 56   12   3 
 57   6   3 
 58   1   0 
 59   1   0 
 60   11   0 
 61   5   1 
 62   2   1 
 63   3   4 
 64   2   4 
 65   16   0 
 66   5   1 
 67   9   6 
 68   5   6 
 69   4   12 
 70   17   0 
 71   4   1 
 72   7   4 
 73   7   10 
 74   2   5 
 75   4   0 
 76   8   2 
 77   9   6 
 78   4   6 
 79   4   12 
 80   14   0 
 81   0   286 
