NAME: ..//instances//e_vigo//TSP_PD_vrp200_80_8_0.00.tspBeta0.000000 
COMMENT: TSPSimoultaneousPickUpandDelivery_2008 
TYPE: TSPDC 
DIMENSION: 82 
CAPACITY: 474 
EDGE_WEIGHT_TYPE: EXPLICIT 
EDGE_WEIGHT_FORMAT: FULL_MATRIX 
EDGE_WEIGHT_SECTION: 
10000000        52        18        63        12        65        28        25        93        4        38        72        10        62        49        38        41        78        88        57        65        54        38        29        32        9        74        77        10        83        94        77        55        60        50        80        79        71        19        75        93        78        24        70        32        67        64        11        26        98        85        81        57        111        21        70        28        87        56        22        12        82        69        35        77        38        74        80        67        56        39        14        94        69        46        91        11        52        62        83        43         
 52        10000000        56        87        40        14        27        64        85        48        66        80        52        11        77        15        78        81        52        74        65        13        51        23        26        60        67        35        57        57        64        32        30        34        82        78        34        70        34        91        59        27        57        18        47        16        13        57        31        76        34        39        80        92        41        58        41        68        58        47        57        66        102        18        81        53        24        55        41        8        25        41        73        87        54        84        44        20        59        37        67         
 18        56        10000000        45        22        68        29        8        78        18        20        55        29        64        30        46        24        62        82        39        49        55        23        37        31        21        60        74        10        73        85        75        49        54        32        64        77        55        23        57        86        82        6        75        19        72        66        9        40        87        89        78        38        97        37        57        19        75        41        11        8        70        52        44        60        22        75        71        59        63        36        29        82        51        31        75        15        50        48        81        25         
 63        87        45        10000000        64        94        63        39        54        62        25        24        73        90        15        82        26        33        86        14        34        79        35        75        62        64        44        87        54        69        81        91        64        65        16        39        91        36        63        16        85        107        39        102        41        100        92        52        81        74        112        89        7        77        81        49        48        64        34        46        51        58        21        81        30        34        97        68        65        95        61        73        69        10        33        50        58        71        39        96        21         
 12        40        22        64        10000000        53        16        30        87        8        39        69        17        49        50        27        46        74        77        56        59        42        33        17        21        21        68        65        18        73        84        65        44        50        53        74        67        66        7        74        83        66        25        58        27        55        51        18        18        89        73        70        57        103        17        62        21        79        50        18        19        74        73        24        73        34        62        70        57        45        28        10        85        68        41        85        6        40        56        71        43         
 65        14        68        94        53        10000000        39        75        83        61        75        84        66        4        85        29        88        83        43        80        68        15        60        36        37        74        68        25        70        52        56        21        32        33        91        79        23        72        47        95        51        14        68        9        57        7        2        69        45        70        21        29        87        87        55        58        51        65        62        58        70        64        111        32        84        61        11        50        39        14        34        55        69        93        61        83        57        23        62        24        75         
 28        27        29        63        16        39        10000000        37        76        24        40        62        33        35        51        19        51        66        61        52        50        26        28        12        5        37        56        49        31        58        68        49        28        34        56        65        51        56        9        70        67        53        30        45        23        42        37        31        22        75        59        53        56        89        28        50        16        65        41        20        31        61        77        18        65        29        47        55        41        34        12        23        71        65        34        74        18        24        45        55        42         
 25        64        8        39        30        75        37        10000000        77        25        16        52        35        72        24        54        16        59        86        36        48        61        24        45        38        26        60        80        15        76        88        81        54        59        25        62        83        54        31        52        89        89        7        82        22        79        73        14        48        88        96        83        33        98        45        59        25        77        41        17        13        71        44        52        57        24        82        73        63        71        42        37        83        46        32        74        23        56        48        87        21         
 93        85        78        54        87        83        76        77        10000000        91        63        30        103        81        61        90        74        21        51        45        29        72        56        87        71        99        19        63        88        34        39        69        54        50        66        16        67        23        81        41        46        92        73        92        62        90        81        87        98        25        94        62        53        23        103        27        66        21        37        71        86        19        74        91        24        56        79        35        44        92        66        97        21        45        47        4        84        64        31        71        57         
 4        48        18        62        8        61        24        25        91        10000000        37        70        12        58        48        34        42        76        84        56        62        50        35        25        28        13        71        73        12        79        90        73        51        57        50        77        75        68        15        74        89        74        23        66        29        63        60        12        24        95        81        77        56        107        19        67        25        84        53        19        13        79        69        32        75        36        70        76        63        53        35        12        91        68        44        88        7        48        59        79        42         
 38        66        20        25        39        75        40        16        63        37        10000000        36        49        71        11        59        15        44        78        20        34        60        16        51        40        41        46        74        30        65        77        77        49        52        16        47        78        40        38        37        80        89        14        83        18        80        73        28        57        75        95        77        18        84        56        46        25        64        28        22        27        58        36        58        42        15        80        63        55        73        41        48        70        31        20        59        33        53        36        83        6         
 72        80        55        24        69        84        62        52        30        70        36        10000000        82        81        32        80        45        9        67        16        16        70        36        74        59        76        22        72        65        49        59        77        52        51        36        15        76        14        65        14        64        96        49        93        42        90        82        63        84        50        100        72        23        53        86        30        49        41        22        51        62        35        44        80        6        35        84        48        49        88        56        79        46        15        28        26        64        61        22        81        30         
 10        52        29        73        17        66        33        35        103        12        49        82        10000000        63        59        38        51        89        94        68        74        57        47        30        38        13        83        81        20        90        101        81        61        67        60        89        83        81        24        85        100        78        34        70        41        67        65        21        23        106        86        86        67        119        14        79        37        96        65        32        22        91        78        35        87        48        76        87        74        56        44        11        102        79        56        100        19        57        72        86        54         
 62        11        64        90        49        4        35        72        81        58        71        81        63        10000000        82        26        84        81        43        77        66        12        56        33        33        71        65        25        66        51        56        21        29        31        87        77        24        69        43        92        51        18        65        12        53        9        2        66        42        69        24        30        83        86        52        56        48        63        59        54        66        62        107        29        81        57        13        49        37        13        30        52        68        89        57        81        53        20        59        26        72         
 49        77        30        15        50        85        51        24        61        48        11        32        59        82        10000000        70        13        41        84        16        35        70        25        62        51        50        47        82        39        69        81        85        57        60        6        45        86        39        49        29        84        99        25        93        29        90        83        38        68        77        105        85        9        83        67        49        36        66        32        33        37        60        26        69        38        24        89        68        61        84        51        59        72        22        26        57        44        63        38        91        10         
 38        15        46        82        27        29        19        54        90        34        59        80        38        26        70        10000000        69        83        64        71        66        24        47        9        21        47        71        48        45        66        74        46        36        42        75        81        48        72        23        89        71        41        48        32        42        30        28        45        16        84        48        53        75        100        26        63        35        76        58        38        45        73        95        3        82        48        39        63        49        18        24        27        82        84        52        88        32        28        61        51        61         
 41        78        24        26        46        88        51        16        74        42        15        45        51        84        13        69        10000000        54        92        29        47        73        30        61        52        40        59        89        31        79        91        91        63        66        10        58        92        52        47        41        94        102        21        95        32        93        86        30        64        89        108        92        22        96        61        60        37        77        42        31        29        71        27        68        51        29        93        77        69        85        54        53        84        35        35        70        40        67        49        97        18         
 78        81        62        33        74        83        66        59        21        76        44        9        89        81        41        83        54        10000000        62        25        16        70        41        78        62        83        17        68        72        43        52        74        52        50        46        7        73        11        70        21        58        95        56        92        47        90        81        70        88        42        98        69        33        44        91        26        53        34        25        57        70        29        53        83        3        41        82        43        46        89        58        84        38        24        33        17        70        62        22        78        38         
 88        52        82        86        77        43        61        86        51        84        78        67        94        43        84        64        92        62        10000000        72        53        40        63        67        56        97        45        17        89        19        15        23        34        28        90        55        20        52        70        80        9        47        79        50        64        49        42        87        78        31        46        14        81        47        87        37        63        31        52        71        87        34        106        66        64        64        35        18        23        56        50        84        32        80        58        53        78        38        47        22        75         
 57        74        39        14        56        80        52        36        45        56        20        16        68        77        16        71        29        25        72        10000000        20        65        24        64        50        61        32        73        49        56        67        77        50        51        21        29        77        24        53        18        72        94        34        89        30        86        78        48        72        62        99        75        9        67        73        36        37        51        20        38        47        45        34        71        22        23        83        55        51        82        49        66        57        13        20        41        50        57        25        82        14         
 65        65        49        34        59        68        50        48        29        62        34        16        74        66        35        66        47        16        53        20        10000000        54        27        62        46        70        12        56        59        36        47        61        37        36        41        15        61        6        54        28        51        81        44        77        33        75        66        57        72        42        85        57        30        49        76        16        38        31        9        43        57        25        54        67        16        27        68        35        33        74        42        69        37        28        18        26        55        46        7        65        29         
 54        13        55        79        42        15        26        61        72        50        60        70        57        12        70        24        73        70        40        65        54        10000000        45        28        23        63        55        25        58        44        51        23        18        21        76        66        25        59        35        81        47        29        54        24        42        21        13        57        39        63        35        29        72        79        48        46        37        55        48        44        57        54        96        26        70        46        21        42        28        20        19        47        60        78        46        71        45        8        48        29        60         
 38        51        23        35        33        60        28        24        56        35        16        36        47        56        25        47        30        41        63        24        27        45        10000000        40        26        43        37        58        32        51        63        61        33        36        31        42        62        33        29        42        65        74        18        68        6        65        57        31        48        64        79        61        28        74        51        35        13        53        18        16        30        47        51        47        40        1        64        49        39        59        26        43        59        37        8        53        29        38        25        67        16         
 29        23        37        75        17        36        12        45        87        25        51        74        30        33        62        9        61        78        67        64        62        28        40        10000000        16        38        68        52        36        66        76        51        36        42        66        77        53        68        14        82        73        49        39        40        34        38        35        36        12        84        56        57        67        99        21        60        27        75        53        30        36        71        87        7        77        41        46        64        50        27        21        19        81        77        46        85        23        29        57        57        54         
 32        26        31        62        21        37        5        38        71        28        40        59        38        33        51        21        52        62        56        50        46        23        26        16        10000000        41        52        45        35        53        63        45        23        29        55        61        47        52        14        67        62        51        31        44        21        41        35        34        27        70        57        49        54        84        33        45        15        60        37        21        34        56        76        21        62        28        44        50        36        34        7        28        66        63        31        69        22        20        41        51        41         
 9        60        21        64        21        74        37        26        99        13        41        76        13        71        50        47        40        83        97        61        70        63        43        38        41        10000000        80        86        11        91        102        86        63        69        50        85        88        76        28        77        102        87        27        78        38        76        73        13        34        106        94        90        58        117        26        77        35        95        62        28        14        89        67        44        81        43        83        88        75        65        47        21        101        71        52        96        19        61        68        92        46         
 74        67        60        44        68        68        56        60        19        71        46        22        83        65        47        71        59        17        45        32        12        55        37        68        52        80        10000000        51        69        26        37        57        37        34        53        12        56        9        62        36        42        79        55        77        43        75        65        68        79        30        82        52        41        38        84        9        47        19        19        52        67        13        65        72        19        37        66        26        29        75        47        77        25        37        29        17        64        47        12        60        41         
 77        35        74        87        65        25        49        80        63        73        74        72        81        25        82        48        89        68        17        73        56        25        58        52        45        86        51        10000000        79        30        32        6        26        22        88        63        4        58        58        85        26        30        72        32        58        31        24        78        64        47        31        4        81        63        73        43        55        43        53        63        78        44        107        51        70        60        17        28        23        39        39        71        46        83        56        64        67        25        50        9        73         
 10        57        10        54        18        70        31        15        88        12        30        65        20        66        39        45        31        72        89        49        59        58        32        36        35        11        69        79        10000000        81        92        80        55        60        40        74        81        65        23        66        93        84        16        76        27        73        68        1        35        95        90        83        47        107        31        66        26        84        51        18        2        79        58        43        70        32        78        78        66        63        40        23        91        60        41        85        13        54        57        86        35         
 83        57        73        69        73        52        58        76        34        79        65        49        90        51        69        66        79        43        19        56        36        44        51        66        53        91        26        30        81        10000000        12        36        30        25        76        37        34        35        66        62        16        60        69        61        54        59        51        80        79        18        61        29        65        35        86        20        55        13        37        63        79        15        90        68        45        52        47        3        17        64        46        81        16        63        45        35        72        39        31        38        61         
 94        64        85        81        84        56        68        88        39        90        77        59        101        56        81        74        91        52        15        67        47        51        63        76        63        102        37        32        92        12        10000000        37        40        34        87        46        35        45        76        73        7        61        81        64        66        63        55        91        88        16        61        29        77        32        96        32        67        19        49        74        91        24        102        76        55        64        49        14        27        69        56        91        18        74        57        41        83        47        43        37        73         
 77        32        75        91        65        21        49        81        69        73        77        77        81        21        85        46        91        74        23        77        61        23        61        51        45        86        57        6        80        36        37        10000000        28        26        92        69        3        63        58        89        31        24        74        27        60        26        20        79        62        52        25        9        85        69        71        48        57        49        57        64        79        50        110        49        75        62        12        34        28        35        40        70        52        88        59        70        67        25        54        6        76         
 55        30        49        64        44        32        28        54        54        51        49        52        61        29        57        36        63        52        34        50        37        18        33        36        23        63        37        26        55        30        40        28        10000000        6        63        48        29        41        37        64        39        44        47        41        32        38        29        54        48        48        49        29        57        64        56        28        30        39        31        38        54        37        82        38        52        34        33        28        13        38        17        51        45        62        31        54        44        10        30        34        47         
 60        34        54        65        50        33        34        59        50        57        52        51        67        31        60        42        66        50        28        51        36        21        36        42        29        69        34        22        60        25        34        26        6        10000000        66        46        26        39        43        64        33        45        51        43        36        40        31        59        54        43        49        25        59        58        62        25        35        34        31        43        59        32        84        43        51        37        33        22        8        42        22        57        40        62        33        50        50        14        29        31        50         
 50        82        32        16        53        91        56        25        66        50        16        36        60        87        6        75        10        46        90        21        41        76        31        66        55        50        53        88        40        76        87        92        63        66        10000000        50        92        45        53        31        91        105        28        99        34        96        88        39        71        83        110        91        13        89        69        56        40        72        38        37        38        66        21        73        43        30        95        74        68        89        57        61        78        25        33        62        47        69        45        97        16         
 80        78        64        39        74        79        65        62        16        77        47        15        89        77        45        81        58        7        55        29        15        66        42        77        61        85        12        63        74        37        46        69        48        46        50        10000000        68        9        69        28        52        90        58        88        48        86        77        72        87        36        93        63        38        38        91        21        53        27        24        58        71        22        59        81        9        42        77        37        41        86        56        84        31        30        34        12        70        58        20        72        42         
 79        34        77        91        67        23        51        83        67        75        78        76        83        24        86        48        92        73        20        77        61        25        62        53        47        88        56        4        81        34        35        3        29        26        92        68        10000000        62        60        89        29        26        75        30        61        29        23        81        64        50        27        6        85        67        74        47        58        47        57        66        81        49        111        51        74        63        14        33        27        38        41        72        50        88        60        68        69        27        54        5        76         
 71        70        55        36        66        72        56        54        23        68        40        14        81        69        39        72        52        11        52        24        6        59        33        68        52        76        9        58        65        35        45        63        41        39        45        9        62        10000000        60        28        50        84        50        81        39        79        70        64        78        38        87        59        33        44        82        16        44        28        15        49        63        22        57        73        12        33        71        34        35        78        48        75        33        29        25        20        62        50        11        67        35         
 19        34        23        63        7        47        9        31        81        15        38        65        24        43        49        23        47        70        70        53        54        35        29        14        14        28        62        58        23        66        76        58        37        43        53        69        60        60        10000000        71        75        60        26        52        23        50        45        23        19        83        67        62        55        96        22        56        16        72        45        16        23        68        74        21        69        30        55        63        50        40        20        16        79        66        37        79        10        33        50        64        41         
 75        91        57        16        74        95        70        52        41        74        37        14        85        92        29        89        41        21        80        18        28        81        42        82        67        77        36        85        66        62        73        89        64        64        31        28        89        28        71        10000000        78        108        51        104        48        102        93        65        90        63        113        86        19        64        91        43        55        54        33        56        64        49        33        88        18        41        96        62        62        99        66        84        59        6        36        37        68        73        35        94        32         
 93        59        86        85        83        51        67        89        46        89        80        64        100        51        84        71        94        58        9        72        51        47        65        73        62        102        42        26        93        16        7        31        39        33        91        52        29        50        75        78        10000000        55        82        58        67        57        50        92        85        24        55        22        81        39        94        36        67        26        53        75        91        30        106        73        61        66        43        17        26        64        55        90        25        79        59        48        83        44        46        31        76         
 78        27        82        107        66        14        53        89        92        74        89        96        78        18        99        41        102        95        47        94        81        29        74        49        51        87        79        30        84        60        61        24        44        45        105        90        26        84        60        108        55        10000000        82        9        71        11        16        83        56        77        7        33        101        93        66        69        65        73        75        72        84        73        125        44        96        75        13        58        49        23        48        67        76        106        74        93        70        36        74        25        89         
 24        57        6        39        25        68        30        7        73        23        14        49        34        65        25        48        21        56        79        34        44        54        18        39        31        27        55        72        16        69        81        74        47        51        28        58        75        50        26        51        82        82        10000000        75        15        72        66        14        43        82        89        76        33        92        42        53        17        71        36        11        14        65        48        47        54        17        75        67        56        64        35        34        77        45        26        70        19        49        43        80        19         
 70        18        75        102        58        9        45        82        92        66        83        93        70        12        93        32        95        92        50        89        77        24        68        40        44        78        77        32        76        61        64        27        41        43        99        88        30        81        52        104        58        9        75        10000000        64        3        11        75        47        78        16        36        95        95        57        68        59        73        71        65        76        73        119        35        93        69        15        59        48        14        42        59        77        102        69        92        62        32        71        29        83         
 32        47        19        41        27        57        23        22        62        29        18        42        41        53        29        42        32        47        64        30        33        42        6        34        21        38        43        58        27        54        66        60        32        36        34        48        61        39        23        48        67        71        15        64        10000000        62        54        26        42        68        77        61        33        79        44        39        7        57        24        10        25        51        55        41        46        7        62        52        41        55        23        37        64        43        14        59        22        36        30        66        20         
 67        16        72        100        55        7        42        79        90        63        80        90        67        9        90        30        93        90        49        86        75        21        65        38        41        76        75        31        73        59        63        26        38        40        96        86        29        79        50        102        57        11        72        3        62        10000000        9        72        45        77        18        35        93        93        55        65        56        72        69        62        73        71        116        33        91        66        15        57        46        12        39        56        76        99        67        90        59        29        68        29        81         
 64        13        66        92        51        2        37        73        81        60        73        82        65        2        83        28        86        81        42        78        66        13        57        35        35        73        65        24        68        51        55        20        29        31        88        77        23        70        45        93        50        16        66        11        54        9        10000000        68        44        69        22        28        85        85        54        56        49        63        60        56        68        62        108        31        82        59        11        48        37        15        32        54        67        90        59        81        55        21        59        24        73         
 11        57        9        52        18        69        31        14        87        12        28        63        21        66        38        45        30        70        87        48        57        57        31        36        34        13        68        78        1        80        91        79        54        59        39        72        81        64        23        65        92        83        14        75        26        72        68        10000000        36        94        90        82        46        105        31        65        25        83        49        17        1        77        58        43        68        31        77        77        65        63        39        24        89        59        39        84        13        53        56        85        34         
 26        31        40        81        18        45        22        48        98        24        57        84        23        42        68        16        64        88        78        72        72        39        48        12        27        34        79        64        35        79        88        62        48        54        71        87        64        78        19        90        85        56        43        47        42        45        44        36        10000000        96        63        68        74        111        10        72        35        87        63        35        36        83        91        13        87        49        55        76        62        33        33        13        93        85        55        96        24        41        68        67        60         
 98        76        87        74        89        70        75        88        25        95        75        50        106        69        77        84        89        42        31        62        42        63        64        84        70        106        30        47        95        18        16        52        48        43        83        36        50        38        83        63        24        77        82        78        68        77        69        94        96        10000000        77        44        71        16        103        29        70        11        47        77        94        17        95        86        45        65        64        21        35        82        64        98        5        66        56        28        88        57        40        53        71         
 85        34        89        112        73        21        59        96        94        81        95        100        86        24        105        48        108        98        46        99        85        35        79        56        57        94        82        31        90        61        61        25        49        49        110        93        27        87        67        113        55        7        89        16        77        18        22        90        63        77        10000000        33        106        93        73        72        72        74        80        78        90        75        130        51        99        81        16        60        52        30        54        75        77        110        80        95        77        42        78        24        95         
 81        39        78        89        70        29        53        83        62        77        77        72        86        30        85        53        92        69        14        75        57        29        61        57        49        90        52        4        83        29        29        9        29        25        91        63        6        59        62        86        22        33        76        36        61        35        28        82        68        44        33        10000000        83        60        77        43        59        42        55        67        82        43        109        55        70        62        21        27        24        43        43        75        44        85        58        63        71        29        51        9        75         
 57        80        38        7        57        87        56        33        53        56        18        23        67        83        9        75        22        33        81        9        30        72        28        67        54        58        41        81        47        65        77        85        57        59        13        38        85        33        55        19        81        101        33        95        33        93        85        46        74        71        106        83        10000000        76        74        45        40        60        29        39        45        54        26        74        30        27        90        64        59        88        54        66        66        13        26        49        51        64        34        90        14         
 111        92        97        77        103        87        89        98        23        107        84        53        119        86        83        100        96        44        47        67        49        79        74        99        84        117        38        63        107        35        32        69        64        58        89        38        67        44        96        64        39        93        92        95        79        93        85        105        111        16        93        60        76        10000000        117        41        83        24        56        89        105        28        97        102        47        75        80        37        51        98        78        112        18        68        66        27        100        73        49        69        78         
 21        41        37        81        17        55        28        45        103        19        56        86        14        52        67        26        61        91        87        73        76        48        51        21        33        26        84        73        31        86        96        71        56        62        69        91        74        82        22        91        94        66        42        57        44        55        54        31        10        103        73        77        74        117        10000000        78        38        93        67        36        32        89        89        23        90        51        65        83        69        43        40        8        100        86        58        101        23        50        72        77        60         
 70        58        57        49        62        58        50        59        27        67        46        30        79        56        49        63        60        26        37        36        16        46        35        60        45        77        9        43        66        20        32        48        28        25        56        21        47        16        56        43        36        69        53        68        39        65        56        65        72        29        72        43        45        41        78        10000000        42        18        18        49        64        13        70        64        27        35        57        19        20        66        39        72        25        43        27        25        60        38        11        52        42         
 28        41        19        48        21        51        16        25        66        25        25        49        37        48        36        35        37        53        63        37        38        37        13        27        15        35        47        55        26        55        67        57        30        35        40        53        58        44        16        55        67        65        17        59        7        56        49        25        35        70        72        59        40        83        38        42        10000000        59        29        8        24        54        61        34        52        14        57        53        41        49        17        31        66        50        20        64        18        31        35        63        27         
 87        68        75        64        79        65        65        77        21        84        64        41        96        63        66        76        77        34        31        51        31        55        53        75        60        95        19        43        84        13        19        49        39        34        72        27        47        28        72        54        26        73        71        73        57        72        63        83        87        11        74        42        60        24        93        18        59        10000000        36        66        82        6        84        77        36        53        60        15        27        75        54        88        7        56        45        22        77        49        28        51        59         
 56        58        41        34        50        62        41        41        37        53        28        22        65        59        32        58        42        25        52        20        9        48        18        53        37        62        19        53        51        37        49        57        31        31        38        24        57        15        45        33        53        75        36        71        24        69        60        49        63        47        80        55        29        56        67        18        29        36        10000000        34        49        30        54        58        24        19        64        36        31        66        34        60        42        31        10        35        46        40        7        62        24         
 22        47        11        46        18        58        20        17        71        19        22        51        32        54        33        38        31        57        71        38        43        44        16        30        21        28        52        63        18        63        74        64        38        43        37        58        66        49        16        56        75        72        11        65        10        62        56        17        35        77        78        67        39        89        36        49        8        66        34        10000000        16        61        57        37        55        16        64        60        49        54        25        28        73        50        24        69        13        39        40        70        25         
 12        57        8        51        19        70        31        13        86        13        27        62        22        66        37        45        29        70        87        47        57        57        30        36        34        14        67        78        2        79        91        79        54        59        38        71        81        63        23        64        91        84        14        76        25        73        68        1        36        94        90        82        45        105        32        64        24        82        49        16        10000000        77        57        43        68        30        78        77        65        63        39        25        89        58        39        83        14        54        55        85        33         
 82        66        70        58        74        64        61        71        19        79        58        35        91        62        60        73        71        29        34        45        25        54        47        71        56        89        13        44        79        15        24        50        37        32        66        22        49        22        68        49        30        73        65        73        51        71        62        77        83        17        75        43        54        28        89        13        54        6        30        61        77        10000000        79        74        31        48        60        16        25        74        50        83        12        50        39        20        72        46        23        52        53         
 69        102        52        21        73        111        77        44        74        69        36        44        78        107        26        95        27        53        106        34        54        96        51        87        76        67        65        107        58        90        102        110        82        84        21        59        111        57        74        33        106        125        48        119        55        116        108        58        91        95        130        109        26        97        89        70        61        84        54        57        57        79        10000000        94        50        50        115        89        85        110        77        81        90        29        51        70        67        88        60        116        35         
 35        18        44        81        24        32        18        52        91        32        58        80        35        29        69        3        68        83        66        71        67        26        47        7        21        44        72        51        43        68        76        49        38        43        73        81        51        73        21        88        73        44        47        35        41        33        31        43        13        86        51        55        74        102        23        64        34        77        58        37        43        74        94        10000000        83        48        42        65        51        21        25        24        83        84        52        89        30        30        62        54        60         
 77        81        60        30        73        84        65        57        24        75        42        6        87        81        38        82        51        3        64        22        16        70        40        77        62        81        19        70        70        45        55        75        52        51        43        9        74        12        69        18        61        96        54        93        46        91        82        68        87        45        99        70        30        47        90        27        52        36        24        55        68        31        50        83        10000000        39        83        45        47        90        58        83        40        21        32        20        68        62        22        79        36         
 38        53        22        34        34        61        29        24        56        36        15        35        48        57        24        48        29        41        64        23        27        46        1        41        28        43        37        60        32        52        64        62        34        37        30        42        63        33        30        41        66        75        17        69        7        66        59        31        49        65        81        62        27        75        51        35        14        53        19        16        30        48        50        48        39        10000000        65        50        41        61        27        44        60        36        9        53        29        39        26        68        14         
 74        24        75        97        62        11        47        82        79        70        80        84        76        13        89        39        93        82        35        83        68        21        64        46        44        83        66        17        78        47        49        12        33        33        95        77        14        71        55        96        43        13        75        15        62        15        11        77        55        64        16        21        90        80        65        57        57        60        64        64        78        60        115        42        83        65        10000000        45        36        25        40        65        63        94        64        80        65        26        62        14        79         
 80        55        71        68        70        50        55        73        35        76        63        48        87        49        68        63        77        43        18        55        35        42        49        64        50        88        26        28        78        3        14        34        28        22        74        37        33        34        63        62        17        58        67        59        52        57        48        77        76        21        60        27        64        37        83        19        53        15        36        60        77        16        89        65        45        50        45        10000000        14        61        44        78        19        62        43        36        69        36        30        36        60         
 67        41        59        65        57        39        41        63        44        63        55        49        74        37        61        49        69        46        23        51        33        28        39        50        36        75        29        23        66        17        27        28        13        8        68        41        27        35        50        62        26        49        56        48        41        46        37        65        62        35        52        24        59        51        69        20        41        27        31        49        65        25        85        51        47        41        36        14        10000000        49        30        65        32        61        35        44        56        22        27        32        52         
 56        8        63        95        45        14        34        71        92        53        73        88        56        13        84        18        85        89        56        82        74        20        59        27        34        65        75        39        63        64        69        35        38        42        89        86        38        78        40        99        64        23        64        14        55        12        15        63        33        82        30        43        88        98        43        66        49        75        66        54        63        74        110        21        90        61        25        61        49        10000000        34        45        80        95        63        92        50        28        67        39        75         
 39        25        36        61        28        34        12        42        66        35        41        56        44        30        51        24        54        58        50        49        42        19        26        21        7        47        47        39        40        46        56        40        17        22        57        56        41        48        20        66        55        48        35        42        23        39        32        39        33        64        54        43        54        78        40        39        17        54        34        25        39        50        77        25        58        27        40        44        30        34        10000000        35        60        62        29        64        28        14        37        46        42         
 14        41        29        73        10        55        23        37        97        12        48        79        11        52        59        27        53        84        84        66        69        47        43        19        28        21        77        71        23        81        91        70        51        57        61        84        72        75        16        84        90        67        34        59        37        56        54        24        13        98        75        75        66        112        8        72        31        88        60        28        25        83        81        24        83        44        65        78        65        45        35        10000000        94        78        51        94        15        46        65        76        52         
 94        73        82        69        85        69        71        83        21        91        70        46        102        68        72        82        84        38        32        57        37        60        59        81        66        101        25        46        91        16        18        52        45        40        78        31        50        33        79        59        25        76        77        77        64        76        67        89        93        5        77        44        66        18        100        25        66        7        42        73        89        12        90        83        40        60        63        19        32        80        60        94        10000000        61        52        24        83        54        35        53        66         
 69        87        51        10        68        93        65        46        45        68        31        15        79        89        22        84        35        24        80        13        28        78        37        77        63        71        37        83        60        63        74        88        62        62        25        30        88        29        66        6        79        106        45        102        43        99        90        59        85        66        110        85        13        68        86        43        50        56        31        50        58        50        29        84        21        36        94        62        61        95        62        78        61        10000000        33        41        63        70        34        93        26         
 46        54        31        33        41        61        34        32        47        44        20        28        56        57        26        52        35        33        58        20        18        46        8        46        31        52        29        56        41        45        57        59        31        33        33        34        60        25        37        36        59        74        26        69        14        67        59        39        55        56        80        58        26        66        58        27        20        45        10        24        39        39        51        52        32        9        64        43        35        63        29        51        52        33        10000000        45        37        38        17        65        17         
 91        84        75        50        85        83        74        74        4        88        59        26        100        81        57        88        70        17        53        41        26        71        53        85        69        96        17        64        85        35        41        70        54        50        62        12        68        20        79        37        48        93        70        92        59        90        81        84        96        28        95        63        49        27        101        25        64        22        35        69        83        20        70        89        20        53        80        36        44        92        64        94        24        41        45        10000000        81        64        29        72        54         
 11        44        15        58        6        57        18        23        84        7        33        64        19        53        44        32        40        70        78        50        55        45        29        23        22        19        64        67        13        72        83        67        44        50        47        70        69        62        10        68        83        70        19        62        22        59        55        13        24        88        77        71        51        100        23        60        18        77        46        13        14        72        67        30        68        29        65        69        56        50        28        15        83        63        37        81        10000000        42        52        73        37         
 52        20        50        71        40        23        24        56        64        48        53        61        57        20        63        28        67        62        38        57        46        8        38        29        20        61        47        25        54        39        47        25        10        14        69        58        27        50        33        73        44        36        49        32        36        29        21        53        41        57        42        29        64        73        50        38        31        49        40        39        54        46        88        30        62        39        26        36        22        28        14        46        54        70        38        64        42        10000000        40        32        53         
 62        59        48        39        56        62        45        48        31        59        36        22        72        59        38        61        49        22        47        25        7        48        25        57        41        68        12        50        57        31        43        54        30        29        45        20        54        11        50        35        46        74        43        71        30        68        59        56        68        40        78        51        34        49        72        11        35        28        7        40        55        23        60        62        22        26        62        30        27        67        37        65        35        34        17        29        52        40        10000000        59        31         
 83        37        81        96        71        24        55        87        71        79        83        81        86        26        91        51        97        78        22        82        65        29        67        57        51        92        60        9        86        38        37        6        34        31        97        72        5        67        64        94        31        25        80        29        66        29        24        85        67        53        24        9        90        69        77        52        63        51        62        70        85        52        116        54        79        68        14        36        32        39        46        76        53        93        65        72        73        32        59        10000000        81         
 43        67        25        21        43        75        42        21        57        42        6        30        54        72        10        61        18        38        75        14        29        60        16        54        41        46        41        73        35        61        73        76        47        50        16        42        76        35        41        32        76        89        19        83        20        81        73        34        60        71        95        75        14        78        60        42        27        59        24        25        33        53        35        60        36        14        79        60        52        75        42        52        66        26        17        54        37        53        31        81        10000000         
 DEMAND_SECTION: 
 0   474   0 
 1   8   2 
 2   10   6 
 3   8   11 
 4   1   3 
 5   19   0 
 6   8   1 
 7   2   1 
 8   3   4 
 9   3   8 
 10   1   0 
 11   5   1 
 12   5   2 
 13   4   5 
 14   1   3 
 15   11   0 
 16   14   3 
 17   9   6 
 18   8   11 
 19   2   6 
 20   11   0 
 21   1   0 
 22   11   6 
 23   5   6 
 24   3   10 
 25   14   0 
 26   4   1 
 27   11   7 
 28   6   8 
 29   1   0 
 30   8   0 
 31   3   0 
 32   4   2 
 33   1   0 
 34   2   4 
 35   1   0 
 36   6   1 
 37   2   0 
 38   5   6 
 39   3   8 
 40   18   0 
 41   1   0 
 42   2   1 
 43   8   11 
 44   4   15 
 45   1   0 
 46   3   0 
 47   6   3 
 48   5   6 
 49   3   8 
 50   16   0 
 51   12   2 
 52   9   5 
 53   6   7 
 54   1   0 
 55   6   0 
 56   4   1 
 57   11   6 
 58   6   8 
 59   1   3 
 60   13   0 
 61   7   1 
 62   8   5 
 63   7   10 
 64   3   11 
 65   1   0 
 66   4   0 
 67   6   3 
 68   5   6 
 69   1   3 
 70   9   0 
 71   8   1 
 72   3   2 
 73   4   5 
 74   3   10 
 75   18   0 
 76   7   1 
 77   3   2 
 78   5   7 
 79   2   6 
 80   10   0 
 81   0   281 
