NAME: ..//instances//e_vigo//TSP_PD_vrp200_80_10_0.00.tspBeta0.000000 
COMMENT: TSPSimoultaneousPickUpandDelivery_2008 
TYPE: TSPDC 
DIMENSION: 82 
CAPACITY: 471 
EDGE_WEIGHT_TYPE: EXPLICIT 
EDGE_WEIGHT_FORMAT: FULL_MATRIX 
EDGE_WEIGHT_SECTION: 
10000000        57        30        89        62        47        38        64        36        34        29        80        83        59        65        78        52        25        30        60        42        29        64        52        73        61        3        16        82        24        11        13        30        71        76        13        82        49        80        39        62        60        9        62        66        58        69        57        72        72        65        16        29        31        10        41        76        67        23        34        72        82        40        81        68        47        53        79        39        15        20        38        86        16        35        72        87        33        71        31        34         
 57        10000000        59        32        25        72        20        16        45        43        49        32        26        58        34        22        35        43        30        45        32        29        11        22        57        65        55        73        30        37        60        61        60        26        73        70        27        28        42        19        36        61        62        5        9        34        17        59        33        46        70        55        29        77        50        54        38        11        46        74        71        46        77        40        28        55        56        31        61        60        76        19        31        54        70        39        31        57        42        39        83         
 30        59        10000000        90        74        77        46        71        16        17        55        89        83        32        81        81        36        48        30        81        30        39        69        43        95        32        31        38        89        24        41        18        1        61        102        31        77        65        94        49        79        86        23        62        67        75        75        30        85        90        92        44        34        61        23        67        90        70        48        64        98        97        71        94        56        20        26        88        67        45        44        41        90        45        65        88        89        4        88        20        62         
 89        32        90        10000000        38        96        51        29        75        73        77        26        7        81        46        11        59        73        62        61        60        61        27        48        67        88        87        105        19        69        91        93        91        36        86        102        17        50        41        50        49        79        94        28        24        50        24        83        37        54        88        85        61        106        82        78        40        22        76        102        86        45        104        37        42        82        81        26        87        91        108        51        12        84        97        45        4        87        49        70        113         
 62        25        74        38        10000000        58        28        11        64        61        42        19        35        81        10        28        58        40        44        23        52        36        16        46        33        87        59        76        23        50        60        70        75        50        50        75        44        14        20        26        12        41        69        27        25        11        15        81        11        21        50        53        40        71        58        40        16        22        43        66        49        23        67        20        53        76        78        18        50        59        77        34        29        52        61        15        35        73        17        56        78         
 47        72        77        96        58        10000000        55        67        78        76        25        76        92        102        54        85        88        33        62        40        77        52        71        81        45        105        45        49        81        61        37        61        76        96        37        54        98        46        67        55        50        25        56        77        77        48        73        101        64        52        24        32        57        26        54        18        64        77        32        19        33        66        14        70        95        91        96        75        11        33        46        62        87        32        14        58        93        79        55        71        32         
 38        20        46        51        28        55        10000000        26        36        34        31        44        45        56        35        40        36        24        16        39        27        9        26        26        53        62        35        53        45        22        40        44        47        41        65        51        46        21        48        2        34        50        44        25        28        30        31        56        39        45        59        35        12        57        32        38        44        29        27        55        62        51        59        48        40        49        52        43        44        40        57        8        48        34        51        42        49        46        43        28        64         
 64        16        71        29        11        67        26        10000000        59        57        48        18        25        74        21        18        50        44        41        34        46        36        5        38        44        80        61        78        19        48        64        70        72        40        61        77        33        21        26        25        23        52        70        17        14        22        6        74        18        32        61        57        38        77        58        49        23        11        47        73        60        30        75        25        43        70        72        17        58        63        81        30        22        56        68        24        26        70        27        52        84         
 36        45        16        75        64        78        36        59        10000000        3        54        77        67        24        71        66        20        46        21        74        14        31        56        27        89        27        36        48        76        17        46        29        17        45        98        42        62        57        83        39        70        82        33        48        53        66        62        22        74        82        90        47        25        67        26        65        79        56        47        68        95        87        75        83        40        14        18        76        68        49        54        30        76        47        68        78        74        13        79        8        70         
 34        43        17        73        61        76        34        57        3        10000000        51        75        66        26        68        64        20        43        18        72        13        28        54        26        86        30        34        47        73        15        44        28        18        44        95        41        60        54        81        36        67        79        32        46        51        64        60        25        72        79        87        45        23        65        24        63        77        54        44        66        92        84        73        80        39        16        21        74        65        47        53        27        74        45        66        75        72        14        76        6        69         
 29        49        55        77        42        25        31        48        54        51        10000000        61        72        78        41        66        63        8        37        33        52        27        50        56        45        81        26        38        65        37        22        42        55        72        47        40        76        28        57        31        38        31        38        54        56        34        54        77        51        45        37        14        32        29        33        12        53        56        7        25        44        57        28        59        71        68        72        60        14        19        38        37        70        13        21        48        74        57        46        46        37         
 80        32        89        26        19        76        44        18        77        75        61        10000000        26        90        22        20        67        59        59        37        64        53        21        55        42        97        77        95        7        66        79        87        90        52        60        94        38        33        15        42        26        55        87        31        27        28        15        91        13        29        64        72        56        90        76        59        14        23        62        85        60        19        86        11        56        88        89        1        68        78        97        48        14        71        80        20        22        88        24        70        98         
 83        26        83        7        35        92        45        25        67        66        72        26        10000000        75        43        7        52        67        55        58        53        54        22        41        66        82        80        98        20        62        85        86        84        30        84        95        13        46        41        44        47        76        87        21        17        47        20        76        36        53        85        79        54        101        75        74        39        16        70        97        83        46        99        38        35        75        75        26        82        85        102        45        14        79        92        44        8        80        48        63        108         
 59        58        32        81        81        102        56        74        24        26        78        90        75        10000000        89        75        23        69        42        95        29        53        69        36        109        7        59        70        87        41        69        49        33        46        120        63        65        76        100        58        89        105        54        59        64        86        75        3        91        100        112        71        47        90        49        89        96        68        71        92        117        103        98        98        40        12        6        89        91        73        76        48        86        71        92        95        82        28        97        31        93         
 65        34        81        46        10        54        35        21        71        68        41        22        43        89        10000000        36        67        41        51        15        61        42        26        55        24        95        62        78        28        57        62        75        81        60        41        78        53        16        15        33        4        34        73        37        34        7        24        90        10        12        42        54        47        70        63        37        12        32        44        64        40        17        64        17        63        84        86        22        46        60        79        42        35        53        59        7        42        80        8        63        77         
 78        22        81        11        28        85        40        18        66        64        66        20        7        75        36        10000000        52        62        52        51        52        50        16        40        59        82        76        94        14        59        80        83        82        33        77        91        18        39        35        39        40        69        83        18        13        40        13        77        29        46        78        74        50        95        71        67        33        11        64        91        76        39        93        31        38        75        75        20        76        80        97        41        11        73        86        37        9        78        41        60        102         
 52        35        36        59        58        88        36        50        20        20        63        67        52        23        67        52        10000000        54        26        74        11        36        46        13        88        30        51        66        64        29        61        47        37        26        101        61        44        55        77        38        67        86        51        36        41        64        52        24        68        79        94        59        30        81        42        72        73        44        56        81        98        81        87        75        21        23        22        66        77        63        72        28        63        59        80        73        60        32        75        21        86         
 25        43        48        73        40        33        24        44        46        43        8        59        67        69        41        62        54        10000000        28        36        44        19        46        48        49        73        22        36        62        29        21        36        48        65        54        37        70        26        57        24        38        38        34        48        50        34        50        68        50        47        44        13        24        33        26        19        53        51        3        30        50        58        34        58        63        60        64        58        22        19        38        30        67        12        27        48        70        50        47        38        40         
 30        30        30        62        44        62        16        41        21        18        37        59        55        42        51        52        26        28        10000000        54        15        11        39        22        68        47        28        45        59        7        36        31        31        42        78        41        53        36        64        18        50        62        32        34        39        46        45        42        55        61        70        34        5        56        21        47        60        41        30        56        75        67        61        64        38        34        38        58        51        38        50        11        61        34        54        58        61        29        59        12        61         
 60        45        81        61        23        40        39        34        74        72        33        37        58        95        15        51        74        36        54        10000000        66        43        39        64        14        100        57        71        43        58        55        72        81        72        28        73        67        19        27        37        11        18        69        49        47        12        38        95        25        13        27        47        49        59        61        25        25        45        37        53        26        26        51        30        73        88        91        37        34        52        71        47        50        46        47        18        57        82        15        66        66         
 42        32        30        60        52        77        27        46        14        13        52        64        53        29        61        52        11        44        15        66        10000000        25        43        13        80        35        40        56        62        18        50        38        31        32        92        51        48        47        72        29        60        76        41        34        39        57        49        29        63        72        85        48        20        70        31        62        68        42        45        70        89        75        76        71        28        24        26        63        66        52        61        19        62        48        69        67        60        27        68        11        75         
 29        29        39        61        36        52        9        36        31        28        27        53        54        53        42        50        36        19        11        43        25        10000000        35        29        58        58        26        44        54        15        32        34        39        47        67        42        54        26        56        11        40        52        34        33        37        36        41        52        47        51        59        27        6        50        22        36        52        38        21        48        64        59        53        56        45        45        49        52        41        32        48        11        57        27        46        49        59        38        49        23        56         
 64        11        69        27        16        71        26        5        56        54        50        21        22        69        26        16        46        46        39        39        43        35        10000000        34        49        76        61        79        20        46        65        69        70        34        66        77        28        25        31        24        28        56        69        11        8        27        6        70        23        37        65        58        37        79        57        52        28        6        49        75        65        35        78        29        37        66        68        20        61        64        82        28        22        58        71        30        24        67        33        49        86         
 52        22        43        48        46        81        26        38        27        26        56        55        41        36        55        40        13        48        22        64        13        29        34        10000000        77        43        50        67        52        28        59        50        44        20        90        62        35        45        64        28        56        77        53        23        28        53        39        37        55        67        85        56        25        78        42        64        60        32        50        77        88        68        82        63        16        34        34        54        70        60        72        19        51        55        75        61        48        40        63        24        84         
 73        57        95        67        33        45        53        44        89        86        45        42        66        109        24        59        88        49        68        14        80        58        49        77        10000000        115        71        83        49        72        67        85        96        83        19        85        76        33        28        51        22        20        83        60        58        24        47        109        30        13        25        59        63        68        74        35        28        55        50        61        19        25        58        32        86        102        105        42        42        64        82        61        56        58        55        22        63        96        18        80        75         
 61        65        32        88        87        105        62        80        27        30        81        97        82        7        95        82        30        73        47        100        35        58        76        43        115        10000000        61        70        94        45        71        50        33        53        125        63        72        82        106        64        95        109        55        66        71        91        82        6        97        106        117        73        52        92        52        93        102        74        74        94        122        110        101        105        47        14        9        96        95        75        76        54        93        74        95        102        89        28        103        36        94         
 3        55        31        87        59        45        35        61        36        34        26        77        80        59        62        76        51        22        28        57        40        26        61        50        71        61        10000000        18        79        23        10        16        31        70        74        16        80        46        77        37        59        57        12        59        63        55        66        58        69        69        63        13        27        31        10        38        73        64        20        33        70        79        40        78        66        48        53        76        37        14        22        36        83        14        34        69        85        34        68        31        35         
 16        73        38        105        76        49        53        78        48        47        38        95        98        70        78        94        66        36        45        71        56        44        79        67        83        70        18        10000000        97        39        16        20        37        87        83        7        98        62        93        55        74        67        16        77        81        71        84        67        86        83        70        24        45        26        25        48        89        82        34        31        79        95        38        95        83        57        64        94        43        19        6        54        101        25        35        85        103        42        83        45        25         
 82        30        89        19        23        81        45        19        76        73        65        7        20        87        28        14        64        62        59        43        62        54        20        52        49        94        79        97        10000000        66        82        88        90        47        67        96        32        37        22        43        32        62        89        28        23        34        14        89        19        36        70        75        56        94        77        64        21        20        65        89        67        26        91        18        51        86        86        7        73        81        99        48        7        74        84        27        15        87        31        69        102         
 24        37        24        69        50        61        22        48        17        15        37        66        62        41        57        59        29        29        7        58        18        15        46        28        72        45        23        39        66        10000000        32        24        25        48        81        35        60        41        70        25        55        65        26        41        46        51        52        40        61        66        72        31        10        53        14        48        66        48        30        53        77        73        59        70        44        31        36        65        51        34        44        18        68        31        52        64        68        24        64        9        57         
 11        60        41        91        60        37        40        64        46        44        22        79        85        69        62        80        61        21        36        55        50        32        65        59        67        71        10        16        82        32        10000000        24        40        78        68        18        86        47        77        41        59        52        19        65        68        55        69        68        70        67        56        8        34        21        20        33        74        69        18        23        64        79        30        79        75        58        64        79        29        4        17        43        86        9        24        69        89        44        67        40        25         
 13        61        18        93        70        61        44        70        29        28        42        87        86        49        75        83        47        36        31        72        38        34        69        50        85        50        16        20        88        24        24        10000000        17        70        89        14        84        58        89        45        72        73        5        65        69        68        75        47        81        82        78        29        32        43        12        54        85        71        35        46        85        92        53        90        66        37        43        86        52        28        26        41        91        30        48        82        91        22        81        27        44         
 30        60        1        91        75        76        47        72        17        18        55        90        84        33        81        82        37        48        31        81        31        39        70        44        96        33        31        37        90        25        40        17        10000000        63        102        30        79        66        95        49        79        86        22        64        68        75        76        31        86        90        92        44        35        60        23        67        91        71        48        63        98        98        70        95        57        21        27        89        67        44        43        42        91        45        64        88        90        6        89        21        62         
 71        26        61        36        50        96        41        40        45        44        72        52        30        46        60        33        26        65        42        72        32        47        34        20        83        53        70        87        47        48        78        70        63        10000000        99        82        19        54        65        42        62        87        73        23        26        60        38        48        57        72        96        74        43        97        62        78        62        30        67        95        98        69        99        62        6        49        47        51        85        79        91        35        43        73        92        64        38        58        67        43        102         
 76        73        102        86        50        37        65        61        98        95        47        60        84        120        41        77        101        54        78        28        92        67        66        90        19        125        74        83        67        81        68        89        102        99        10000000        86        94        46        46        63        38        16        86        76        75        40        65        120        49        32        13        61        73        63        80        36        46        72        54        56        4        43        51        51        101        112        116        60        39        64        81        73        74        60        50        41        82        103        36        90        69         
 13        70        31        102        75        54        51        77        42        41        40        94        95        63        78        91        61        37        41        73        51        42        77        62        85        63        16        7        96        35        18        14        30        82        86        10000000        94        62        93        53        75        70        9        74        78        71        82        61        86        84        74        26        41        32        21        51        89        80        35        37        82        95        44        95        78        51        57        93        48        22        13        51        99        27        40        85        100        35        84        40        32         
 82        27        77        17        44        98        46        33        62        60        76        38        13        65        53        18        44        70        53        67        48        54        28        35        76        72        80        98        32        60        86        84        79        19        94        94        10000000        53        53        46        56        85        85        22        21        55        29        67        47        64        94        81        53        103        74        80        51        22        73        100        93        58        104        50        25        67        66        38        88        87        102        44        27        81        97        55        20        74        59        58        110         
 49        28        65        50        14        46        21        21        57        54        28        33        46        76        16        39        55        26        36        19        47        26        25        45        33        82        46        62        37        41        47        58        66        54        46        62        53        10000000        31        18        14        33        57        32        32        10        27        76        24        25        42        39        31        57        47        28        27        31        29        52        44        33        54        32        55        70        73        32        37        45        64        28        42        38        47        23        47        65        23        48        65         
 80        42        94        41        20        67        48        26        83        81        57        15        41        100        15        35        77        57        64        27        72        56        31        64        28        106        77        93        22        70        77        89        95        65        46        93        53        31        10000000        46        19        44        88        42        38        23        26        100        9        16        51        69        60        85        77        51        4        35        59        79        47        4        78        4        68        95        97        15        61        75        94        54        29        68        73        9        37        93        12        76        92         
 39        19        49        50        26        55        2        25        39        36        31        42        44        58        33        39        38        24        18        37        29        11        24        28        51        64        37        55        43        25        41        45        49        42        63        53        46        18        46        10000000        32        49        45        24        27        28        29        58        37        43        57        35        14        57        34        37        41        28        27        55        60        49        58        46        41        51        54        41        44        41        58        10        46        35        51        39        48        48        40        30        64         
 62        36        79        49        12        50        34        23        70        67        38        26        47        89        4        40        67        38        50        11        60        40        28        56        22        95        59        74        32        55        59        72        79        62        38        75        56        14        19        32        10000000        30        70        39        36        4        27        89        14        11        38        51        45        66        60        33        16        34        40        60        37        20        60        21        64        83        86        26        42        56        75        41        39        50        54        10        46        79        9        62        73         
 60        61        86        79        41        25        50        52        82        79        31        55        76        105        34        69        86        38        62        18        76        52        56        77        20        109        57        67        62        65        52        73        86        87        16        70        85        33        44        49        30        10000000        69        65        64        30        56        104        43        28        9        45        57        49        63        19        42        62        38        42        13        42        39        48        88        96        100        55        24        48        66        58        69        44        36        36        75        87        32        74        56         
 9        62        23        94        69        56        44        70        33        32        38        87        87        54        73        83        51        34        32        69        41        34        69        53        83        55        12        16        89        26        19        5        22        73        86        9        85        57        88        45        70        69        10000000        66        70        66        75        52        80        80        74        25        33        38        12        50        84        72        32        41        82        90        48        89        69        42        48        86        48        23        21        42        91        26        43        80        92        27        80        30        39         
 62        5        62        28        27        77        25        17        48        46        54        31        21        59        37        18        36        48        34        49        34        33        11        23        60        66        59        77        28        41        65        65        64        23        76        74        22        32        42        24        39        65        66        10000000        5        37        16        60        34        48        74        60        33        82        54        58        39        9        51        79        75        47        82        40        26        57        58        31        66        65        81        24        28        59        75        41        27        60        44        42        88         
 66        9        67        24        25        77        28        14        53        51        56        27        17        64        34        13        41        50        39        47        39        37        8        28        58        71        63        81        23        46        68        69        68        26        75        78        21        32        38        27        36        64        70        5        10000000        35        12        65        31        46        73        62        37        84        58        59        35        4        53        80        73        43        83        36        30        62        63        26        67        68        84        28        23        62        76        38        22        65        41        47        91         
 58        34        75        50        11        48        30        22        66        64        34        28        47        86        7        40        64        34        46        12        57        36        27        53        24        91        55        71        34        51        55        68        75        60        40        71        55        10        23        28        4        30        66        37        35        10000000        27        86        17        15        38        47        41        63        56        30        19        33        36        57        38        24        57        25        62        79        82        28        40        52        72        38        40        46        52        14        46        75        13        58        70         
 69        17        75        24        15        73        31        6        62        60        54        15        20        75        24        13        52        50        45        38        49        41        6        39        47        82        66        84        14        52        69        75        76        38        65        82        29        27        26        29        27        56        75        16        12        27        10000000        76        19        35        65        63        42        83        63        54        23        9        53        79        64        31        80        24        42        72        74        14        63        69        86        34        17        62        74        26        21        73        30        55        90         
 57        59        30        83        81        101        56        74        22        25        77        91        76        3        90        77        24        68        42        95        29        52        70        37        109        6        58        67        89        40        68        47        31        48        120        61        67        76        100        58        89        104        52        60        65        86        76        10000000        91        101        112        69        47        88        48        88        96        69        69        90        116        104        97        99        42        10        4        90        90        71        73        48        87        69        90        96        84        25        97        30        91         
 72        33        85        37        11        64        39        18        74        72        51        13        36        91        10        29        68        50        55        25        63        47        23        55        30        97        69        86        19        61        70        81        86        57        49        86        47        24        9        37        14        43        80        34        31        17        19        91        10000000        17        51        63        51        79        69        47        5        27        52        74        48        13        74        9        60        86        88        12        56        68        87        45        26        62        68        8        33        84        12        67        87         
 72        46        90        54        21        52        45        32        82        79        45        29        53        100        12        46        79        47        61        13        72        51        37        67        13        106        69        83        36        66        67        82        90        72        32        84        64        25        16        43        11        28        80        48        46        15        35        101        17        10000000        36        59        56        71        71        38        15        43        49        65        32        14        64        20        74        94        97        29        47        64        83        53        43        58        59        9        50        90        5        73        79         
 65        70        92        88        50        24        59        61        90        87        37        64        85        112        42        78        94        44        70        27        85        59        65        85        25        117        63        70        70        72        56        78        92        96        13        74        94        42        51        57        38        9        74        74        73        38        65        112        51        36        10000000        49        65        50        69        25        50        71        44        43        9        49        38        55        97        103        108        63        27        52        68        67        77        49        37        44        84        94        40        81        56         
 16        55        44        85        53        32        35        57        47        45        14        72        79        71        54        74        59        13        34        47        48        27        58        56        59        73        13        24        75        31        8        29        44        74        61        26        81        39        69        35        51        45        25        60        62        47        63        69        63        59        49        10000000        31        23        22        25        66        63        10        22        57        71        28        71        72        59        65        71        23        6        25        38        80        1        21        61        83        47        59        40        29         
 29        29        34        61        40        57        12        38        25        23        32        56        54        47        47        50        30        24        5        49        20        6        37        25        63        52        27        45        56        10        34        32        35        43        73        41        53        31        60        14        45        57        33        33        37        41        42        47        51        56        65        31        10000000        53        21        42        56        39        26        52        70        63        58        60        41        39        43        55        46        35        49        9        59        30        50        53        59        34        54        17        59         
 31        77        61        106        71        26        57        77        67        65        29        90        101        90        70        95        81        33        56        59        70        50        79        78        68        92        31        26        94        53        21        43        60        97        63        32        103        57        85        57        66        49        38        82        84        63        83        88        79        71        50        23        53        10000000        41        34        81        84        31        7        59        85        13        87        94        78        84        89        25        18        21        61        99        23        13        76        103        64        73        61        8         
 10        50        23        82        58        54        32        58        26        24        33        76        75        49        63        71        42        26        21        61        31        22        57        42        74        52        10        25        77        14        20        12        23        62        80        21        74        47        77        34        60        63        12        54        58        56        63        48        69        71        69        22        21        41        10000000        45        73        60        25        43        76        80        49        78        58        38        44        75        45        23        30        30        79        22        43        70        80        25        69        21        45         
 41        54        67        78        40        18        38        49        65        63        12        59        74        89        37        67        72        19        47        25        62        36        52        64        35        93        38        48        64        48        33        54        67        78        36        51        80        28        51        37        33        19        50        58        59        30        54        88        47        38        25        25        42        34        45        10000000        49        58        19        27        32        51        27        54        78        79        84        58        9        29        47        45        70        25        21        43        75        69        40        57        41         
 76        38        90        40        16        64        44        23        79        77        53        14        39        96        12        33        73        53        60        25        68        52        28        60        28        102        73        89        21        66        74        85        91        62        46        89        51        27        4        41        16        42        84        39        35        19        23        96        5        15        50        66        56        81        73        49        10000000        32        55        76        46        8        75        6        65        91        93        14        58        71        90        50        28        65        70        6        36        89        10        72        89         
 67        11        70        22        22        77        29        11        56        54        56        23        16        68        32        11        44        51        41        45        42        38        6        32        55        74        64        82        20        48        69        71        71        30        72        80        22        31        35        28        34        62        72        9        4        33        9        69        27        43        71        63        39        84        60        58        32        10000000        54        81        71        39        83        33        33        66        66        22        67        69        86        30        20        62        76        35        20        68        38        50        91         
 23        46        48        76        43        32        27        47        47        44        7        62        70        71        44        64        56        3        30        37        45        21        49        50        50        74        20        34        65        30        18        35        48        67        54        35        73        29        59        27        40        38        32        51        53        36        53        69        52        49        44        10        26        31        25        19        55        54        10000000        28        50        60        32        61        66        60        65        61        21        16        35        32        70        9        25        50        73        50        49        39        37         
 34        74        64        102        66        19        55        73        68        66        25        85        97        92        64        91        81        30        56        53        70        48        75        77        61        94        33        31        89        53        23        46        63        95        56        37        100        52        79        55        60        42        41        79        80        57        79        90        74        65        43        22        52        7        43        27        76        81        28        10000000        51        79        7        81        93        80        86        84        19        19        27        59        95        22        6        70        99        67        67        62        14         
 72        71        98        86        49        33        62        60        95        92        44        60        83        117        40        76        98        50        75        26        89        64        65        88        19        122        70        79        67        77        64        85        98        98        4        82        93        44        47        60        37        13        82        75        73        38        64        116        48        32        9        57        70        59        76        32        46        71        50        51        10000000        44        47        51        99        108        113        60        35        60        77        70        74        56        46        41        82        100        36        86        65         
 82        46        97        45        23        66        51        30        87        84        57        19        46        103        17        39        81        58        67        26        75        59        35        68        25        110        79        95        26        73        79        92        98        69        43        95        58        33        4        49        20        42        90        47        43        24        31        104        13        14        49        71        63        85        80        51        8        39        60        79        44        10000000        78        8        73        99        101        20        60        76        95        57        33        70        73        10        41        96        12        79        92         
 40        77        71        104        67        14        59        75        75        73        28        86        99        98        64        93        87        34        61        51        76        53        78        82        58        101        40        38        91        59        30        53        70        99        51        44        104        54        78        58        60        39        48        82        83        57        80        97        74        64        38        28        58        13        49        27        75        83        32        7        47        78        10000000        81        98        87        93        85        18        26        34        64        96        28        7        69        101        74        66        68        18         
 81        40        94        37        20        70        48        25        83        80        59        11        38        98        17        31        75        58        64        30        71        56        29        63        32        105        78        95        18        70        79        90        95        62        51        95        50        32        4        46        21        48        89        40        36        25        24        99        9        20        55        71        60        87        78        54        6        33        61        81        51        8        81        10000000        66        94        96        12        64        77        96        53        25        70        76        12        33        93        16        75        95         
 68        28        56        42        53        95        40        43        40        39        71        56        35        40        63        38        21        63        38        73        28        45        37        16        86        47        66        83        51        44        75        66        57        6        101        78        25        55        68        41        64        88        69        26        30        62        42        42        60        74        97        72        41        94        58        78        65        33        66        93        99        73        98        66        10000000        43        41        55        84        76        88        34        48        71        90        67        43        52        70        39        100         
 47        55        20        82        76        91        49        70        14        16        68        88        75        12        84        75        23        60        34        88        24        45        66        34        102        14        48        57        86        31        58        37        21        49        112        51        67        70        95        51        83        96        42        57        62        79        72        10        86        94        103        59        39        78        38        79        91        66        60        80        108        99        87        94        43        10000000        6        87        81        61        63        42        85        60        81        90        82        16        92        22        81         
 53        56        26        81        78        96        52        72        18        21        72        89        75        6        86        75        22        64        38        91        26        49        68        34        105        9        53        64        86        36        64        43        27        47        116        57        66        73        97        54        86        100        48        58        63        82        74        4        88        97        108        65        43        84        44        84        93        66        65        86        113        101        93        96        41        6        10000000        88        86        67        69        45        85        65        86        93        82        22        94        26        87         
 79        31        88        26        18        75        43        17        76        74        60        1        26        89        22        20        66        58        58        37        63        52        20        54        42        96        76        94        7        65        79        86        89        51        60        93        38        32        15        41        26        55        86        31        26        28        14        90        12        29        63        71        55        89        75        58        14        22        61        84        60        20        85        12        55        87        88        10000000        67        77        96        47        14        70        79        20        22        87        24        69        97         
 39        61        67        87        50        11        44        58        68        65        14        68        82        91        46        76        77        22        51        34        66        41        61        70        42        95        37        43        73        51        29        52        67        85        39        48        88        37        61        44        42        24        48        66        67        40        63        90        56        47        27        23        46        25        45        9        58        67        21        19        35        60        18        64        84        81        86        67        10000000        25        41        51        79        23        13        52        84        70        49        60        33         
 15        60        45        91        59        33        40        63        49        47        19        78        85        73        60        80        63        19        38        52        52        32        64        60        64        75        14        19        81        34        4        28        44        79        64        22        87        45        75        41        56        48        23        65        68        52        69        71        68        64        52        6        35        18        23        29        71        69        16        19        60        76        26        77        76        61        67        77        25        10000000        19        44        85        7        20        66        88        48        65        43        24         
 20        76        44        108        77        46        57        81        54        53        38        97        102        76        79        97        72        38        50        71        61        48        82        72        82        76        22        6        99        44        17        26        43        91        81        13        102        64        94        58        75        66        21        81        84        72        86        73        87        83        68        25        49        21        30        47        90        86        35        27        77        95        34        96        88        63        69        96        41        19        10000000        58        103        26        32        86        106        48        84        51        20         
 38        19        41        51        34        62        8        30        30        27        37        48        45        48        42        41        28        30        11        47        19        11        28        19        61        54        36        54        48        18        43        41        42        35        73        51        44        28        54        10        41        58        42        24        28        38        34        48        45        53        67        38        9        61        30        45        50        30        32        59        70        57        64        53        34        42        45        47        51        44        58        10000000        50        38        57        48        50        40        50        22        67         
 86        31        90        12        29        87        48        22        76        74        70        14        14        86        35        11        63        67        61        50        62        57        22        51        56        93        83        101        7        68        86        91        91        43        74        99        27        42        29        46        39        69        91        28        23        40        17        87        26        43        77        80        59        99        79        70        28        20        70        95        74        33        96        25        48        85        85        14        79        85        103        50        10000000        79        90        34        8        88        38        70        107         
 16        54        45        84        52        32        34        56        47        45        13        71        79        71        53        73        59        12        34        46        48        27        58        55        58        74        14        25        74        31        9        30        45        73        60        27        81        38        68        35        50        44        26        59        62        46        62        69        62        58        49        1        30        23        22        25        65        62        9        22        56        70        28        70        71        60        65        70        23        7        26        38        79        10000000        21        60        82        47        58        40        29         
 35        70        65        97        61        14        51        68        68        66        21        80        92        92        59        86        80        27        54        47        69        46        71        75        55        95        34        35        84        52        24        48        64        92        50        40        97        47        73        51        54        36        43        75        76        52        74        90        68        59        37        21        50        13        43        21        70        76        25        6        46        73        7        76        90        81        86        79        13        20        32        57        90        21        10000000        64        94        68        61        61        20         
 72        39        88        45        15        58        42        24        78        75        48        20        44        95        7        37        73        48        58        18        67        49        30        61        22        102        69        85        27        64        69        82        88        64        41        85        55        23        9        39        10        36        80        41        38        14        26        96        8        9        44        61        53        76        70        43        6        35        50        70        41        10        69        12        67        90        93        20        52        66        86        48        34        60        64        10000000        41        87        4        70        83         
 87        31        89        4        35        93        49        26        74        72        74        22        8        82        42        9        60        70        61        57        60        59        24        48        63        89        85        103        15        68        89        91        90        38        82        100        20        47        37        48        46        75        92        27        22        46        21        84        33        50        84        83        59        103        80        75        36        20        73        99        82        41        101        33        43        82        82        22        84        88        106        50        8        82        94        41        10000000        86        45        69        110         
 33        57        4        87        73        79        46        70        13        14        57        88        80        28        80        78        32        50        29        82        27        38        67        40        96        28        34        42        87        24        44        22        6        58        103        35        74        65        93        48        79        87        27        60        65        75        73        25        84        90        94        47        34        64        25        69        89        68        50        67        100        96        74        93        52        16        22        87        70        48        48        40        88        47        68        87        86        10000000        88        18        66         
 71        42        88        49        17        55        43        27        79        76        46        24        48        97        8        41        75        47        59        15        68        49        33        63        18        103        68        83        31        64        67        81        89        67        36        84        59        23        12        40        9        32        80        44        41        13        30        97        12        5        40        59        54        73        69        40        10        38        49        67        36        12        66        16        70        92        94        24        49        65        84        50        38        58        61        4        45        88        10000000        71        81         
 31        39        20        70        56        71        28        52        8        6        46        70        63        31        63        60        21        38        12        66        11        23        49        24        80        36        31        45        69        9        40        27        21        43        90        40        58        48        76        30        62        74        30        42        47        58        55        30        67        73        81        40        17        61        21        57        72        50        39        62        86        79        68        75        39        22        26        69        60        43        51        22        70        40        61        70        69        18        71        10000000        65         
 34        83        62        113        78        32        64        84        70        69        37        98        108        93        77        102        86        40        61        66        75        56        86        84        75        94        35        25        102        57        25        44        62        102        69        32        110        65        92        64        73        56        39        88        91        70        90        91        87        79        56        29        59        8        45        41        89        91        37        14        65        92        18        95        100        81        87        97        33        24        20        67        107        29        20        83        110        66        81        65        10000000         
 DEMAND_SECTION: 
 0   471   0 
 1   15   3 
 2   5   3 
 3   5   6 
 4   1   3 
 5   3   0 
 6   8   1 
 7   9   6 
 8   5   6 
 9   3   8 
 10   4   0 
 11   2   0 
 12   7   4 
 13   1   0 
 14   1   0 
 15   7   0 
 16   14   3 
 17   2   1 
 18   8   11 
 19   2   6 
 20   7   0 
 21   4   1 
 22   8   5 
 23   5   6 
 24   3   10 
 25   2   0 
 26   4   1 
 27   9   5 
 28   4   6 
 29   2   6 
 30   1   0 
 31   16   3 
 32   9   5 
 33   4   4 
 34   2   4 
 35   9   0 
 36   12   3 
 37   4   2 
 38   2   1 
 39   3   12 
 40   14   0 
 41   11   2 
 42   9   6 
 43   5   6 
 44   3   8 
 45   13   0 
 46   3   0 
 47   11   6 
 48   3   4 
 49   3   12 
 50   8   0 
 51   15   3 
 52   9   5 
 53   4   5 
 54   1   3 
 55   10   0 
 56   4   1 
 57   1   0 
 58   3   3 
 59   4   12 
 60   9   0 
 61   4   0 
 62   8   5 
 63   7   10 
 64   4   14 
 65   12   0 
 66   7   1 
 67   1   0 
 68   5   6 
 69   2   6 
 70   5   0 
 71   1   0 
 72   11   6 
 73   2   3 
 74   1   0 
 75   10   0 
 76   10   2 
 77   3   2 
 78   4   4 
 79   1   3 
 80   18   0 
 81   0   273 
