NAME: IA_generated_7
COMMENT: Instancia_generada_por_IA_menor_escala
TYPE: TSPDC
DIMENSION: 9
CAPACITY: 64
EDGE_WEIGHT_TYPE: EXPLICIT
EDGE_WEIGHT_FORMAT: FULL_MATRIX
EDGE_WEIGHT_SECTION:
  10000000        24        66        16        71        20        68        44
        24  10000000        77        10        70        12        62        67
        66        77  10000000        68        32        64        45        86
        16        10        68  10000000        64         6        59        60
        71        70        32        64  10000000        59        15       103
        20        12        64         6        59  10000000        53        64
        68        62        45        59        15        53  10000000       106
        44        67        86        60       103        64       106  10000000
 DEMAND_SECTION:
 0   36   0
 1   9   5
 2   9   4
 3   6   15
 4   4   12
 5   1   8
 6   3   14
 7   4   6
 8   0   64
