NAME: IA_generated_5
COMMENT: Instancia_generada_por_IA_menor_escala
TYPE: TSPDC
DIMENSION: 7
CAPACITY: 45
EDGE_WEIGHT_TYPE: EXPLICIT
EDGE_WEIGHT_FORMAT: FULL_MATRIX
EDGE_WEIGHT_SECTION:
  10000000        16        72        66        77        69
        16  10000000        64        51        70        53
        72        64  10000000        77        12        76
        66        51        77  10000000        89         4
        77        70        12        89  10000000        88
        69        53        76         4        88  10000000
 DEMAND_SECTION:
 0   39   0
 1   8   14
 2   12   5
 3   9   5
 4   2   12
 5   8   9
 6   0   45
