NAME: IA_generated_9
COMMENT: Instancia_generada_por_IA_menor_escala
TYPE: TSPDC
DIMENSION: 11
CAPACITY: 82
EDGE_WEIGHT_TYPE: EXPLICIT
EDGE_WEIGHT_FORMAT: FULL_MATRIX
EDGE_WEIGHT_SECTION:
  10000000        45        27        46        14         8        74        63        43        12
        45  10000000        55        17        48        39        30        23        73        50
        27        55  10000000        46        42        24        78        63        18        16
        46        17        46  10000000        53        38        32        17        63        46
        14        48        42        53  10000000        20        78        68        57        26
         8        39        24        38        20  10000000        67        55        41        12
        74        30        78        32        78        67  10000000        16        95        77
        63        23        63        17        68        55        16  10000000        79        64
        43        73        18        63        57        41        95        79  10000000        31
        12        50        16        46        26        12        77        64        31  10000000
 DEMAND_SECTION:
 0   79   0
 1   11   14
 2   4   12
 3   10   3
 4   12   14
 5   10   7
 6   1   4
 7   5   4
 8   13   10
 9   13   14
 10   0   82
