NAME: IA_generated_8
COMMENT: Instancia_generada_por_IA_menor_escala
TYPE: TSPDC
DIMENSION: 10
CAPACITY: 49
EDGE_WEIGHT_TYPE: EXPLICIT
EDGE_WEIGHT_FORMAT: FULL_MATRIX
EDGE_WEIGHT_SECTION:
  10000000        54        46        65        87        85        81        30        33
        54  10000000        37        13        74        83        58        28        25
        46        37  10000000        38        44        49        35        21        19
        65        13        38  10000000        69        80        51        36        33
        87        74        44        69  10000000        16        19        66        64
        85        83        49        80        16  10000000        33        69        68
        81        58        35        51        19        33  10000000        55        53
        30        28        21        36        66        69        55  10000000         3
        33        25        19        33        64        68        53         3  10000000
 DEMAND_SECTION:
 0   42   0
 1   13   8
 2   1   9
 3   9   5
 4   10   4
 5   1   13
 6   2   4
 7   2   4
 8   4   2
 9   0   49
