NAME: IA_generated_6
COMMENT: Instancia_generada_por_IA_menor_escala
TYPE: TSPDC
DIMENSION: 8
CAPACITY: 39
EDGE_WEIGHT_TYPE: EXPLICIT
EDGE_WEIGHT_FORMAT: FULL_MATRIX
EDGE_WEIGHT_SECTION:
  10000000        72        47        15        22        50        25
        72  10000000       117        87        93       121        92
        47       117  10000000        38        36        10        24
        15        87        38  10000000         6        38        22
        22        93        36         6  10000000        34        24
        50       121        10        38        34  10000000        30
        25        92        24        22        24        30  10000000
 DEMAND_SECTION:
 0   39   0
 1   6   9
 2   1   8
 3   11   4
 4   10   2
 5   6   9
 6   5   7
 7   0   39
