NAME: IA_generated_4
COMMENT: Instancia_generada_por_IA_menor_escala
TYPE: TSPDC
DIMENSION: 6
CAPACITY: 30
EDGE_WEIGHT_TYPE: EXPLICIT
EDGE_WEIGHT_FORMAT: FULL_MATRIX
EDGE_WEIGHT_SECTION:
  10000000         8        19        80         9
         8  10000000        25        86        13
        19        25  10000000        91        28
        80        86        91  10000000        73
         9        13        28        73  10000000
 DEMAND_SECTION:
 0   30   0
 1   7   3
 2   14   12
 3   6   6
 4   3   7
 5   0   28
