NAME: IA_generated_10
COMMENT: Instancia_generada_por_IA_menor_escala
TYPE: TSPDC
DIMENSION: 12
CAPACITY: 80
EDGE_WEIGHT_TYPE: EXPLICIT
EDGE_WEIGHT_FORMAT: FULL_MATRIX
EDGE_WEIGHT_SECTION:
  10000000        35        21        51        45        48        59        57        39        30        42
        35  10000000        46        67        59        69        88        22        44        17        14
        21        46  10000000        71        66        27        42        65        24        32        47
        51        67        71  10000000         7        96        96        85        90        73        80
        45        59        66         7  10000000        91        94        78        84        66        73
        48        69        27        96        91  10000000        27        84        30        53        66
        59        88        42        96        94        27  10000000       106        56        74        88
        57        22        65        85        78        84       106  10000000        55        32        18
        39        44        24        90        84        30        56        55  10000000        27        37
        30        17        32        73        66        53        74        32        27  10000000        14
        42        14        47        80        73        66        88        18        37        14  10000000
 DEMAND_SECTION:
 0   77   0
 1   5   3
 2   8   12
 3   13   8
 4   10   14
 5   10   6
 6   2   3
 7   13   8
 8   3   15
 9   6   9
 10   7   2
 11   0   80
