NAME: IA_generated_12
COMMENT: Instancia_generada_por_IA_menor_escala
TYPE: TSPDC
DIMENSION: 14
CAPACITY: 120
EDGE_WEIGHT_TYPE: EXPLICIT
EDGE_WEIGHT_FORMAT: FULL_MATRIX
EDGE_WEIGHT_SECTION:
  10000000        50        58        74        73        28        18        74        10        62        59        64        48
        50  10000000        28        38        43        59        68        63        51        12        30        42        39
        58        28  10000000        16        16        77        72        35        54        35         2        13        18
        74        38        16  10000000         8        92        88        36        70        40        15        16        31
        73        43        16         8  10000000        93        86        27        68        47        14        10        27
        28        59        77        92        93  10000000        37        99        38        68        79        86        72
        18        68        72        88        86        37  10000000        81        18        80        73        76        59
        74        63        35        36        27        99        81  10000000        65        70        33        22        27
        10        51        54        70        68        38        18        65  10000000        64        55        58        41
        62        12        35        40        47        68        80        70        64  10000000        37        48        49
        59        30         2        15        14        79        73        33        55        37  10000000        11        17
        64        42        13        16        10        86        76        22        58        48        11  10000000        17
        48        39        18        31        27        72        59        27        41        49        17        17  10000000
 DEMAND_SECTION:
 0   106   0
 1   12   13
 2   5   8
 3   9   14
 4   13   15
 5   2   8
 6   2   2
 7   13   9
 8   12   3
 9   1   14
 10   15   12
 11   12   15
 12   10   7
 13   0   120
