NAME: IA_generated_11
COMMENT: Instancia_generada_por_IA_menor_escala
TYPE: TSPDC
DIMENSION: 13
CAPACITY: 87
EDGE_WEIGHT_TYPE: EXPLICIT
EDGE_WEIGHT_FORMAT: FULL_MATRIX
EDGE_WEIGHT_SECTION:
  10000000        96        47        90        78         5        33        82        41       103        37        48
        96  10000000       114        64        70        93        97        55        75         9        76        98
        47       114  10000000        77        63        43        19        76        39       123        38        18
        90        64        77  10000000        14        84        68        10        49        73        53        59
        78        70        63        14  10000000        73        54        16        37        80        41        45
         5        93        43        84        73  10000000        28        77        36       101        31        42
        33        97        19        68        54        28  10000000        64        22       105        20        15
        82        55        76        10        16        77        64  10000000        43        64        47        57
        41        75        39        49        37        36        22        43  10000000        84         4        24
       103         9       123        73        80       101       105        64        84  10000000        85       107
        37        76        38        53        41        31        20        47         4        85  10000000        24
        48        98        18        59        45        42        15        57        24       107        24  10000000
 DEMAND_SECTION:
 0   54   0
 1   5   2
 2   2   12
 3   9   9
 4   1   3
 5   3   1
 6   4   6
 7   7   2
 8   3   13
 9   12   13
 10   6   12
 11   2   14
 12   0   87
