NAME: IA_generated_14
COMMENT: Instancia_generada_por_IA_menor_escala
TYPE: TSPDC
DIMENSION: 16
CAPACITY: 120
EDGE_WEIGHT_TYPE: EXPLICIT
EDGE_WEIGHT_FORMAT: FULL_MATRIX
EDGE_WEIGHT_SECTION:
  10000000        68        96        44        67        48        48        44        14        65       104        64        36        40        47
        68  10000000        46        38        38        50        51        81        68        35        45        36        42        28        77
        96        46  10000000        53        30        54        55        86        89        81        14        82        83        62        80
        44        38        53  10000000        23        13        14        43        37        58        62        58        42        22        38
        67        38        30        23  10000000        24        24        56        59        69        42        70        62        40        50
        48        50        54        13        24  10000000         1        33        37        72        66        72        54        35        28
        48        51        55        14        24         1  10000000        32        37        73        66        73        55        37        27
        44        81        86        43        56        33        32  10000000        29        95        99        94        70        59         7
        14        68        89        37        59        37        37        29  10000000        72        99        71        44        41        32
        65        35        81        58        69        72        73        95        72  10000000        79         1        29        37        93
       104        45        14        62        42        66        66        99        99        79  10000000        80        86        67        92
        64        36        82        58        70        72        73        94        71         1        80  10000000        28        36        93
        36        42        83        42        62        54        55        70        44        29        86        28  10000000        22        70
        40        28        62        22        40        35        37        59        41        37        67        36        22  10000000        56
        47        77        80        38        50        28        27         7        32        93        92        93        70        56  10000000
 DEMAND_SECTION:
 0   120   0
 1   15   5
 2   9   1
 3   15   10
 4   12   4
 5   1   4
 6   12   9
 7   13   2
 8   5   6
 9   10   3
 10   1   5
 11   9   8
 12   6   5
 13   11   2
 14   1   11
 15   0   75
