NAME: IA_generated_13
COMMENT: Instancia_generada_por_IA_menor_escala
TYPE: TSPDC
DIMENSION: 15
CAPACITY: 145
EDGE_WEIGHT_TYPE: EXPLICIT
EDGE_WEIGHT_FORMAT: FULL_MATRIX
EDGE_WEIGHT_SECTION:
  10000000       106        16        15        72        21        71        78        47        66        82        60        66        35
       106  10000000        89       112        54       126        37        40        78        65        47        47        66       101
        16        89  10000000        28        60        38        54        62        35        55        66        43        55        36
        15       112        28  10000000        72        16        80        89        62        63        94        69        63        24
        72        54        60        72  10000000        88        47        60        73        10        70        45        11        53
        21       126        38        16        88  10000000        92       100        68        80       103        81        79        40
        71        37        54        80        47        92  10000000        13        41        53        23        11        54        75
        78        40        62        89        60       100        13  10000000        40        67        10        21        68        86
        47        78        35        62        73        68        41        40  10000000        73        39        33        74        70
        66        65        55        63        10        80        53        67        73  10000000        76        49         1        43
        82        47        66        94        70       103        23        10        39        76  10000000        29        77        93
        60        47        43        69        45        81        11        21        33        49        29  10000000        50        65
        66        66        55        63        11        79        54        68        74         1        77        50  10000000        42
        35       101        36        24        53        40        75        86        70        43        93        65        42  10000000
 DEMAND_SECTION:
 0   145   0
 1   13   7
 2   15   1
 3   14   10
 4   10   1
 5   11   1
 6   15   1
 7   10   15
 8   7   5
 9   13   8
 10   10   11
 11   6   10
 12   14   13
 13   7   11
 14   0   94
