NAME: IA_generated_15
COMMENT: Instancia_generada_por_IA_menor_escala
TYPE: TSPDC
DIMENSION: 17
CAPACITY: 126
EDGE_WEIGHT_TYPE: EXPLICIT
EDGE_WEIGHT_FORMAT: FULL_MATRIX
EDGE_WEIGHT_SECTION:
  10000000        32       100        38        93        81        23        95        62        24        77        49         6        40        94        78
        32  10000000        75        17        90        69        55       101        64        50        82        53        36        57        68        48
       100        75  10000000        62        69        41       117        94        72       104        82        74       100        93         7        33
        38        17        62  10000000        74        52        58        87        50        49        68        40        39        49        55        40
        93        90        69        74  10000000        30        97        26        31        80        23        44        88        60        70        84
        81        69        41        52        30  10000000        92        53        33        75        41        39        78        60        41        53
        23        55       117        58        97        92  10000000        93        65        17        77        54        19        37       112        99
        95       101        94        87        26        53        93  10000000        37        77        19        48        89        56        94       105
        62        64        72        50        31        33        65        37  10000000        48        18        13        57        29        70        73
        24        50       104        49        80        75        17        77        48  10000000        60        37        17        21        99        88
        77        82        82        68        23        41        77        19        18        60  10000000        29        72        39        81        88
        49        53        74        40        44        39        54        48        13        37        29  10000000        44        20        71        69
         6        36       100        39        88        78        19        89        57        17        72        44  10000000        34        94        79
        40        57        93        49        60        60        37        56        29        21        39        20        34  10000000        89        85
        94        68         7        55        70        41       112        94        70        99        81        71        94        89  10000000        26
        78        48        33        40        84        53        99       105        73        88        88        69        79        85        26  10000000
 DEMAND_SECTION:
 0   126   0
 1   13   8
 2   15   10
 3   3   7
 4   12   14
 5   6   13
 6   11   13
 7   12   1
 8   1   5
 9   15   4
 10   10   5
 11   2   1
 12   8   6
 13   6   2
 14   9   10
 15   3   11
 16   0   110
